     Program PWSCF v.5.1rc2 (svn rev. ) starts on 23Mar2018 at  9:18:16

     Current dimensions of program PWSCF are:
     Max number of different atomic species (ntypx) = 10
     Max number of k-points (npk) =  40000
     Max angular momentum in pseudopotentials (lmaxx) =  3
     Presently no symmetry can be used with electric field

     IMPORTANT: XC functional enforced from input :
     Exchange-correlation      = RPBE ( 1  4 28  4 0)
     Any further DFT definition will be discarded
     Please, verify this is what you really want

               file Ni.UPF: wavefunction(s)  3D renormalized

     Subspace diagonalization in iterative solution of the eigenvalue problem:
     a serial algorithm will be used

     Generating pointlists ...
     new r_m :   0.4125 (alat units)  0.7795 (a.u.) for type    1
     new r_m :   0.4125 (alat units)  0.7795 (a.u.) for type    2

     bravais-lattice index     =            0
     lattice parameter (alat)  =       1.8897  a.u.
     unit-cell volume          =   12553.3819 (a.u.)^3
     number of atoms/cell      =           37
     number of atomic types    =            2
     number of electrons       =       364.00
     number of Kohn-Sham states=          282
     kinetic-energy cutoff     =      44.0992  Ry
     charge density cutoff     =     440.9919  Ry
     convergence threshold     =      7.3E-07
     mixing beta               =       0.1000
     number of iterations used =           10  plain     mixing
     Exchange-correlation      = RPBE ( 1  4 28  4 0)
     nstep                     =           50

     celldm(1)=   1.889726  celldm(2)=   0.000000  celldm(3)=   0.000000
     celldm(4)=   0.000000  celldm(5)=   0.000000  celldm(6)=   0.000000

     crystal axes: (cart. coord. in units of alat)
               a(1) = (   6.162925   0.000000   0.000000 )
               a(2) = (   0.000000   7.548011   0.000000 )
               a(3) = (   0.000000   0.000000  39.989385 )

     reciprocal axes: (cart. coord. in units 2 pi/alat)
               b(1) = (  0.162261  0.000000  0.000000 )
               b(2) = (  0.000000  0.132485  0.000000 )
               b(3) = (  0.000000  0.000000  0.025007 )

     PseudoPot. # 1 for Ni read from file:
     /home/alatimer/bin/psp/esp_psp_w_gbrvRu/Ni.UPF
     MD5 check sum: 8b2449ee0060d9c33484ccd47bb60870
     Pseudo is Ultrasoft + core correction, Zval = 10.0
     Generated using "atomic" code by A. Dal Corso  v.5.0.2 svn rev. 9415
     Using radial grid of 1195 points,  6 beta functions with:
                l(1) =   0
                l(2) =   0
                l(3) =   1
                l(4) =   1
                l(5) =   2
                l(6) =   2
     Q(r) pseudized with 0 coefficients

     PseudoPot. # 2 for  C read from file:
     /home/alatimer/bin/psp/esp_psp_w_gbrvRu/C.UPF
     MD5 check sum: ab446d787031eba755f1d5ee46644bb0
     Pseudo is Ultrasoft + core correction, Zval =  4.0
     Generated using "atomic" code by A. Dal Corso  v.5.0.2 svn rev. 9415
     Using radial grid of 1073 points,  4 beta functions with:
                l(1) =   0
                l(2) =   0
                l(3) =   1
                l(4) =   1
     Q(r) pseudized with 0 coefficients

     atomic species   valence    mass     pseudopotential
        Ni1           10.00    58.69340     Ni( 1.00)
        C1             4.00    12.01100      C( 1.00)

     Starting magnetic structure
     atomic species   magnetization
        Ni1          0.300
        C1           0.750

     No symmetry found

   Cartesian axes

     site n.     atom                  positions (alat units)
         1           Ni1 tau(   1) = (   0.0000000   1.2580018  23.9893847  )
         2           Ni1 tau(   2) = (   0.0000000   3.7740055  23.9893847  )
         3           Ni1 tau(   3) = (   0.0000000   6.2900092  23.9893847  )
         4           Ni1 tau(   4) = (   4.1086168   0.0000000  23.2630770  )
         5           Ni1 tau(   5) = (   4.1086168   2.5160037  23.2630770  )
         6           Ni1 tau(   6) = (   4.1086168   5.0320073  23.2630770  )
         7           Ni1 tau(   7) = (   2.0543084   1.2580018  22.5367693  )
         8           Ni1 tau(   8) = (   2.0543084   3.7740055  22.5367693  )
         9           Ni1 tau(   9) = (   2.0543084   6.2900092  22.5367693  )
        10           Ni1 tau(  10) = (   0.0000000   0.0000000  21.8104616  )
        11           Ni1 tau(  11) = (   0.0000000   2.5160037  21.8104616  )
        12           Ni1 tau(  12) = (   0.0000000   5.0320073  21.8104616  )
        13           Ni1 tau(  13) = (   4.1086168   1.2580018  21.0841539  )
        14           Ni1 tau(  14) = (   4.1086168   3.7740055  21.0841539  )
        15           Ni1 tau(  15) = (   4.1086168   6.2900092  21.0841539  )
        16           Ni1 tau(  16) = (   2.0543084   0.0000000  20.3578462  )
        17           Ni1 tau(  17) = (   2.0543084   2.5160037  20.3578462  )
        18           Ni1 tau(  18) = (   2.0543084   5.0320073  20.3578462  )
        19           Ni1 tau(  19) = (   0.0000000   1.2580018  19.6315385  )
        20           Ni1 tau(  20) = (   0.0000000   3.7740055  19.6315385  )
        21           Ni1 tau(  21) = (   0.0000000   6.2900092  19.6315385  )
        22           Ni1 tau(  22) = (   4.1086168   0.0000000  18.9052308  )
        23           Ni1 tau(  23) = (   4.1086168   2.5160037  18.9052308  )
        24           Ni1 tau(  24) = (   4.1086168   5.0320073  18.9052308  )
        25           Ni1 tau(  25) = (   2.0543084   1.2580018  18.1789231  )
        26           Ni1 tau(  26) = (   2.0543084   3.7740055  18.1789231  )
        27           Ni1 tau(  27) = (   2.0543084   6.2900092  18.1789231  )
        28           Ni1 tau(  28) = (   0.0000000   0.0000000  17.4526154  )
        29           Ni1 tau(  29) = (   0.0000000   2.5160037  17.4526154  )
        30           Ni1 tau(  30) = (   0.0000000   5.0320073  17.4526154  )
        31           Ni1 tau(  31) = (   4.1086168   1.2580018  16.7263077  )
        32           Ni1 tau(  32) = (   4.1086168   3.7740055  16.7263077  )
        33           Ni1 tau(  33) = (   4.1086168   6.2900092  16.7263077  )
        34           Ni1 tau(  34) = (   2.0543084   0.0000000  16.0000000  )
        35           Ni1 tau(  35) = (   2.0543084   2.5160037  16.0000000  )
        36           Ni1 tau(  36) = (   2.0543084   5.0320073  16.0000000  )
        37           C1  tau(  37) = (   1.9993671   2.6166424  23.7893806  )

     number of k points=    10  Fermi-Dirac smearing, width (Ry)=  0.0073
                       cart. coord. in units 2pi/alat
        k(    1) = (   0.0000000   0.0000000   0.0000000), wk =   0.1111111
        k(    2) = (   0.0000000   0.0441617   0.0000000), wk =   0.2222222
        k(    3) = (   0.0540869   0.0000000   0.0000000), wk =   0.2222222
        k(    4) = (   0.0540869   0.0441617   0.0000000), wk =   0.2222222
        k(    5) = (   0.0540869  -0.0441617   0.0000000), wk =   0.2222222
        k(    6) = (   0.0000000   0.0000000   0.0000000), wk =   0.1111111
        k(    7) = (   0.0000000   0.0441617   0.0000000), wk =   0.2222222
        k(    8) = (   0.0540869   0.0000000   0.0000000), wk =   0.2222222
        k(    9) = (   0.0540869   0.0441617   0.0000000), wk =   0.2222222
        k(   10) = (   0.0540869  -0.0441617   0.0000000), wk =   0.2222222

     Largest allocated arrays     est. size (Mb)     dimensions
     Largest temporary arrays     est. size (Mb)     dimensions

     Initial potential from superposition of free atoms
     Check: negative starting charge=(component1):   -0.000956
     Check: negative starting charge=(component2):   -0.000513

     starting charge  363.99092, renormalised to  364.00000

     negative rho (up, down):  9.561E-04 5.134E-04

     Adding external electric field

     Computed dipole along edir(3) :
        Dipole               -0.0004 Ry au,         -0.0011 Debye
        Dipole field         -0.0000 Ry au

        Potential amp.        0.0001 Ry
        Total length         73.6798 bohr

[...]

     Starting wfc are  328 randomized atomic wfcs

     Self-consistent Calculation

     iteration #  1     ecut=    44.10 Ry     beta=0.10
     Davidson diagonalization with overlap
     ethr =  1.00E-02,  avg # of iterations =  8.4

[...]

     Magnetic moment per site:
     atom:    1    charge:    3.9347    magn:    1.1479    constr:    0.0000
     atom:    2    charge:    3.9382    magn:    1.1443    constr:    0.0000
     atom:    3    charge:    3.9274    magn:    1.1545    constr:    0.0000
     atom:    4    charge:    3.9515    magn:    1.1285    constr:    0.0000
     atom:    5    charge:    3.9591    magn:    1.1201    constr:    0.0000
     atom:    6    charge:    3.9522    magn:    1.1278    constr:    0.0000
     atom:    7    charge:    3.9686    magn:    1.1105    constr:    0.0000
     atom:    8    charge:    3.9710    magn:    1.1092    constr:    0.0000
     atom:    9    charge:    3.9631    magn:    1.1166    constr:    0.0000
     atom:   10    charge:    3.9705    magn:    1.1124    constr:    0.0000
     atom:   11    charge:    3.9741    magn:    1.1097    constr:    0.0000
     atom:   12    charge:    3.9708    magn:    1.1122    constr:    0.0000
     atom:   13    charge:    3.9729    magn:    1.1090    constr:    0.0000
     atom:   14    charge:    3.9730    magn:    1.1090    constr:    0.0000
     atom:   15    charge:    3.9729    magn:    1.1087    constr:    0.0000
     atom:   16    charge:    3.9748    magn:    1.1060    constr:    0.0000
     atom:   17    charge:    3.9763    magn:    1.1049    constr:    0.0000
     atom:   18    charge:    3.9750    magn:    1.1054    constr:    0.0000
     atom:   19    charge:    3.9731    magn:    1.1074    constr:    0.0000
     atom:   20    charge:    3.9731    magn:    1.1075    constr:    0.0000
     atom:   21    charge:    3.9732    magn:    1.1074    constr:    0.0000
     atom:   22    charge:    3.9722    magn:    1.1093    constr:    0.0000
     atom:   23    charge:    3.9722    magn:    1.1091    constr:    0.0000
     atom:   24    charge:    3.9723    magn:    1.1092    constr:    0.0000
     atom:   25    charge:    3.9686    magn:    1.1118    constr:    0.0000
     atom:   26    charge:    3.9685    magn:    1.1118    constr:    0.0000
     atom:   27    charge:    3.9684    magn:    1.1109    constr:    0.0000
     atom:   28    charge:    3.9609    magn:    1.1162    constr:    0.0000
     atom:   29    charge:    3.9606    magn:    1.1162    constr:    0.0000
     atom:   30    charge:    3.9609    magn:    1.1162    constr:    0.0000
     atom:   31    charge:    3.9503    magn:    1.1294    constr:    0.0000
     atom:   32    charge:    3.9503    magn:    1.1294    constr:    0.0000
     atom:   33    charge:    3.9504    magn:    1.1294    constr:    0.0000
     atom:   34    charge:    3.9263    magn:    1.1533    constr:    0.0000
     atom:   35    charge:    3.9268    magn:    1.1526    constr:    0.0000
     atom:   36    charge:    3.9265    magn:    1.1532    constr:    0.0000
[...]
    -3.4376  -3.4314  -3.3849  -3.3683  -3.3660  -3.3545  -3.3172  -3.2913
    -3.2669  -3.2592  -3.2532  -3.2171  -3.2063  -3.1651  -3.1322  -3.1166
    -3.0883  -3.0556  -3.0417  -3.0105  -2.9998  -2.9756  -2.9564  -2.8948
    -2.8773  -2.8708  -2.8586  -2.8535  -2.8395  -2.8334  -2.8278  -2.8134
    -2.8118  -2.7995  -2.7870  -2.7632  -2.7091  -2.6860  -2.6725  -2.6559
    -2.6374  -2.6205  -2.6165  -2.6137  -2.6085  -2.5947  -2.5868  -2.5713
    -2.5518  -2.5028  -2.4911  -2.4814  -2.4725  -2.4652  -2.4285  -2.3900
    -2.3586  -2.3540  -2.3451  -2.2888  -2.2706  -2.2443  -2.2366  -2.2261
    -2.2052  -2.1963  -2.1895  -2.1547  -2.1380  -2.1258  -2.0547  -2.0189
    -1.9780  -1.9726  -1.9663  -1.9524  -1.9500  -1.9138  -1.8807  -1.8749
    -1.8700  -1.8254  -1.8092  -1.7897  -1.7867  -1.7675  -1.7634  -1.7520
    -1.7254  -1.6975  -1.6963  -1.6911  -1.6575  -1.6541  -1.6456  -1.6350
    -1.6277  -1.6237  -1.6158  -1.6083  -1.5723  -1.5683  -1.5653  -1.5543
    -1.5429  -1.5244  -1.5065  -1.5017  -1.4826  -1.4460  -1.4208  -1.4132
    -1.3855  -1.3687  -1.3650  -1.3575  -1.3535  -1.3518  -1.3427  -1.3367
    -1.3257  -1.3082  -1.2971  -1.2878  -1.2725  -1.2533  -1.2483  -1.2431
    -1.2413  -1.2250  -1.2143  -1.1970  -1.1324  -1.0845  -0.9490  -0.8702
    -0.7294  -0.6836  -0.3579  -0.1056   0.1072   0.2676   0.3075   0.4873
     0.5181   0.6421   0.7586   0.8529   0.9167   0.9480   1.1693   1.2504
     1.5141   1.5664   1.8771   1.9571   2.2775   2.4684   2.6029   2.8569
     2.9589   3.0966   3.2760   3.4661   3.6027   3.6531   3.7610   3.9450
     4.0121   4.2561   4.5044   4.6052   4.7394   4.8241   4.9341   5.0754
     5.1535   5.3761   5.7003   5.7547   5.7850   5.9836   6.0208   6.1925
     6.2040   6.2469   6.2685   6.2705   6.3270   6.3981   6.5251   6.5931
     6.6780   6.6875   6.6888   6.8860   6.9269   6.9582   7.0790   7.2897
     7.3135   7.3324   7.4077   7.4272   7.4528   7.4642   7.5619   7.5879
     7.6486   7.6527   7.6799   7.7697   7.8688   7.9178   8.1139   8.1259
     8.1586   8.2285   8.2511   8.3824   8.4438   8.5942   8.6014   8.7057
     8.7945   8.8237

[...]

 ------ SPIN DOWN ----------

[...]

     the Fermi energy is    -0.6534 ev

!    total energy              =   -3634.67046212 Ry
     Harris-Foulkes estimate   =   -3634.67046166 Ry
     estimated scf accuracy    <       0.00000049 Ry

     The total energy is the sum of the following terms:

     one-electron contribution =  -77230.49285603 Ry
     hartree contribution      =   38977.64182231 Ry
     xc contribution           =   -1509.45021395 Ry
     ewald contribution        =   36127.79288613 Ry
     electric field correction =       0.00000472 Ry
     smearing contrib. (-TS)   =      -0.16210530 Ry

[...]

     convergence has been achieved in  64 iterations

     Forces acting on atoms (Ry/au):

     negative rho (up, down):  7.475E-04 6.120E-04
     atom    1 type  1   force =     0.01411424    0.00975052   -0.01572305
     atom    2 type  1   force =     0.02241478   -0.01265281   -0.01403435
     atom    3 type  1   force =    -0.00915062    0.00059056   -0.02323622
     atom    4 type  1   force =     0.01269938   -0.00684990   -0.00297853
     atom    5 type  1   force =    -0.03057755    0.00100409    0.02598959
     atom    6 type  1   force =     0.01319459    0.00804569   -0.00258801
     atom    7 type  1   force =     0.00643493   -0.00780702    0.02520138
     atom    8 type  1   force =     0.00949212    0.05605758   -0.02472450
     atom    9 type  1   force =     0.00069813    0.00146711    0.00760650
     atom   10 type  1   force =     0.00145468   -0.00127381    0.00867047
     atom   11 type  1   force =    -0.01127021   -0.00116385   -0.00185989
     atom   12 type  1   force =     0.00010745    0.00255440    0.00768972
     atom   13 type  1   force =    -0.00014329   -0.00128333   -0.00427991
     atom   14 type  1   force =     0.00044447    0.00137553   -0.00561043
     atom   15 type  1   force =    -0.00497482   -0.00022545    0.00175798
     atom   16 type  1   force =    -0.00132758   -0.00189092   -0.00361022
     atom   17 type  1   force =     0.00082072    0.00010905   -0.01291297
     atom   18 type  1   force =    -0.00150904    0.00317043   -0.00604866
     atom   19 type  1   force =     0.00111896   -0.00038553    0.00145603
     atom   20 type  1   force =     0.00117471    0.00026848    0.00164053
     atom   21 type  1   force =     0.00124303    0.00001150   -0.00067095
     atom   22 type  1   force =     0.00362588    0.00006579   -0.00076496
     atom   23 type  1   force =     0.00375911   -0.00005790   -0.00017875
     atom   24 type  1   force =     0.00353717   -0.00006552   -0.00062626
     atom   25 type  1   force =    -0.00274887   -0.00032861   -0.01079197
     atom   26 type  1   force =    -0.00273425    0.00031910   -0.01070861
     atom   27 type  1   force =    -0.00287229    0.00028009   -0.01405694
     atom   28 type  1   force =    -0.00191797    0.00048269   -0.01011716
     atom   29 type  1   force =    -0.00177952   -0.00003200   -0.01013300
     atom   30 type  1   force =    -0.00186790   -0.00043432   -0.01020237
     atom   31 type  1   force =    -0.00555163    0.00029267    0.00345803
     atom   32 type  1   force =    -0.00554082   -0.00024155    0.00342216
     atom   33 type  1   force =    -0.00505932   -0.00002199    0.00365280
     atom   34 type  1   force =     0.00612597    0.00073617    0.02180941
     atom   35 type  1   force =     0.00600905   -0.00006064    0.02100841
     atom   36 type  1   force =     0.00611464   -0.00067992    0.02177074
     atom   37 type  2   force =    -0.02555831   -0.05112640    0.03072397

     Total force =     0.126469     Total SCF correction =     0.003584
 !ASE

     Writing output data file calc.save
     Check: negative starting charge=(component1):   -0.001469
     NEW-OLD atomic charge density approx. for the potential
     Check: negative starting charge=(component1):   -0.001488

[...]

     iteration #  1     ecut=    44.10 Ry     beta=0.10
     Davidson diagonalization with overlap
     c_bands:  1 eigenvalues not converged
     ethr =  2.08E-10,  avg # of iterations =  8.7

[...]

     Writing output data file calc.save
     Check: negative starting charge=(component1):   -0.001495
     NEW-OLD atomic charge density approx. for the potential
     Check: negative starting charge=(component1):   -0.001493

[...]

     Self-consistent Calculation

[...]

     total energy              =   -3634.75676146 Ry
     Harris-Foulkes estimate   =   -3634.75676102 Ry
     estimated scf accuracy    <       0.00000134 Ry

[...]

     iteration # 19     ecut=    44.10 Ry     beta=0.10
     Davidson diagonalization with overlap
     ethr =  2.04E-10,  avg # of iterations =  1.0

     negative rho (up, down):  7.560E-04 6.256E-04

[...]

     Adding external electric field

     Computed dipole along edir(3) :
        Dipole               -0.0767 Ry au,         -0.1949 Debye
        Dipole field         -0.0001 Ry au

        Potential amp.        0.0113 Ry
        Total length         73.6798 bohr

     Magnetic moment per site:
     atom:    1    charge:    3.8789    magn:    0.1291    constr:    0.0000
     atom:    2    charge:    3.8802    magn:    0.1289    constr:    0.0000
     atom:    3    charge:    3.8616    magn:    0.3749    constr:    0.0000
     atom:    4    charge:    3.9458    magn:    0.3567    constr:    0.0000
     atom:    5    charge:    3.9746    magn:    0.3719    constr:    0.0000
     atom:    6    charge:    3.9441    magn:    0.3566    constr:    0.0000
     atom:    7    charge:    3.8573    magn:    0.1498    constr:    0.0000
     atom:    8    charge:    3.8464    magn:    0.1479    constr:    0.0000
     atom:    9    charge:    3.9302    magn:    0.3586    constr:    0.0000
     atom:   10    charge:    3.9613    magn:    0.3786    constr:    0.0000
     atom:   11    charge:    3.9686    magn:    0.2289    constr:    0.0000
     atom:   12    charge:    3.9615    magn:    0.3783    constr:    0.0000
     atom:   13    charge:    3.9687    magn:    0.3685    constr:    0.0000
     atom:   14    charge:    3.9692    magn:    0.3682    constr:    0.0000
     atom:   15    charge:    3.9597    magn:    0.3893    constr:    0.0000
     atom:   16    charge:    3.9671    magn:    0.3695    constr:    0.0000
     atom:   17    charge:    3.9628    magn:    0.3734    constr:    0.0000
     atom:   18    charge:    3.9672    magn:    0.3696    constr:    0.0000
     atom:   19    charge:    3.9680    magn:    0.3856    constr:    0.0000
     atom:   20    charge:    3.9680    magn:    0.3856    constr:    0.0000
     atom:   21    charge:    3.9680    magn:    0.3948    constr:    0.0000
     atom:   22    charge:    3.9697    magn:    0.3867    constr:    0.0000
     atom:   23    charge:    3.9697    magn:    0.3892    constr:    0.0000
     atom:   24    charge:    3.9698    magn:    0.3865    constr:    0.0000
     atom:   25    charge:    3.9683    magn:    0.3921    constr:    0.0000
     atom:   26    charge:    3.9684    magn:    0.3920    constr:    0.0000
     atom:   27    charge:    3.9685    magn:    0.3859    constr:    0.0000
     atom:   28    charge:    3.9687    magn:    0.4028    constr:    0.0000
     atom:   29    charge:    3.9689    magn:    0.3966    constr:    0.0000
     atom:   30    charge:    3.9688    magn:    0.4027    constr:    0.0000
     atom:   31    charge:    3.9746    magn:    0.4172    constr:    0.0000
     atom:   32    charge:    3.9747    magn:    0.4171    constr:    0.0000
     atom:   33    charge:    3.9747    magn:    0.4144    constr:    0.0000
     atom:   34    charge:    3.9838    magn:    0.4295    constr:    0.0000
     atom:   35    charge:    3.9839    magn:    0.4253    constr:    0.0000
     atom:   36    charge:    3.9839    magn:    0.4295    constr:    0.0000
     atom:   37    charge:    0.1553    magn:   -0.0015    constr:    0.0000

     End of self-consistent calculation

 ------ SPIN UP ------------

[...]

 ------ SPIN DOWN ----------

[...]

          k = 0.0541-0.0442 0.0000 ( 62079 PWs)   bands (ev):

   -12.6801  -8.3540  -7.5641  -7.2803  -7.0649  -6.6352  -6.4769  -6.2363
    -5.9971  -5.7762  -5.4856  -5.3809  -5.1710  -4.9596  -4.8407  -4.7531
    -4.6854  -4.6070  -4.5385  -4.4726  -4.4225  -4.3428  -4.2604  -4.1869
    -4.1151  -4.0847  -4.0755  -3.9729  -3.9239  -3.9043  -3.8547  -3.8524
    -3.8072  -3.7854  -3.7707  -3.7101  -3.6949  -3.6258  -3.5523  -3.5120
    -3.4753  -3.4629  -3.4331  -3.4071  -3.3756  -3.3485  -3.3267  -3.2882
    -3.2719  -3.2305  -3.1948  -3.1612  -3.1224  -3.0977  -3.0486  -3.0445
    -2.9998  -2.9650  -2.9387  -2.9141  -2.8839  -2.8459  -2.8319  -2.7756
    -2.7410  -2.7049  -2.6975  -2.6805  -2.6610  -2.6420  -2.6174  -2.5943
    -2.5657  -2.5486  -2.5206  -2.5084  -2.4798  -2.4725  -2.4474  -2.4156
    -2.3903  -2.3802  -2.3634  -2.3539  -2.3270  -2.3160  -2.2929  -2.2812
    -2.2475  -2.2253  -2.2177  -2.1999  -2.1780  -2.1607  -2.1426  -2.1310
    -2.0996  -2.0763  -2.0558  -2.0370  -2.0277  -2.0125  -1.9996  -1.9746
    -1.9627  -1.9379  -1.9090  -1.8956  -1.8739  -1.8562  -1.8392  -1.8135
    -1.7882  -1.7492  -1.7451  -1.7188  -1.7114  -1.6988  -1.6717  -1.6414
    -1.6153  -1.5990  -1.5947  -1.5742  -1.5527  -1.5395  -1.5291  -1.5158
    -1.4867  -1.4621  -1.4486  -1.4110  -1.3925  -1.3699  -1.3431  -1.3187
    -1.2996  -1.2898  -1.2736  -1.2435  -1.2087  -1.1880  -1.1753  -1.1619
    -1.1466  -1.1204  -1.1045  -1.0939  -1.0785  -1.0465  -1.0425  -1.0307
    -1.0079  -0.9857  -0.9654  -0.9433  -0.9355  -0.9096  -0.8927  -0.8864
    -0.8768  -0.8366  -0.8179  -0.7989  -0.7803  -0.7726  -0.7427  -0.7315
    -0.7189  -0.6798  -0.6413  -0.6305  -0.6109  -0.6050  -0.5921  -0.5828
    -0.5777  -0.5626  -0.5469  -0.5258  -0.5167  -0.5088  -0.4916  -0.4607
    -0.4476  -0.4262  -0.4168  -0.4041  -0.3901  -0.3556  -0.3189  -0.2998
    -0.2081  -0.0695   0.0589   0.1958   0.3378   0.4780   0.5200   0.6185
     0.7254   0.7929   1.0788   1.1657   1.3060   1.4516   1.7166   1.9779
     2.0531   2.1379   2.2461   2.4298   2.6660   2.9072   3.1285   3.2449
     3.5823   3.7288   3.7971   4.1526   4.2673   4.3441   4.3706   4.4710
     4.6187   4.7794   4.9067   4.9664   5.0403   5.1118   5.2287   5.2545
     5.3124   5.3871   5.5261   5.6016   5.6535   5.6992   5.7973   5.8138
     5.8734   5.9399   6.0047   6.0357   6.2057   6.2310   6.2853   6.3662
     6.4112   6.4763   6.5468   6.5618   6.6068   6.6314   6.7085   6.7251
     6.8242   6.9233   6.9550   7.0663   7.1118   7.1355   7.1907   7.2453
     7.2991   7.5928   7.6276   7.6836   7.7844   7.8872   7.9244   7.9723
     8.0356   8.1042   8.1341   8.2244   8.3166   8.3876   8.4910   8.5866
     8.6835   8.7289

     the Fermi energy is    -0.6703 ev

!    total energy              =   -3634.75676457 Ry
     Harris-Foulkes estimate   =   -3634.75676156 Ry
     estimated scf accuracy    <       0.00000027 Ry

     The total energy is the sum of the following terms:

     one-electron contribution =  -77375.04574842 Ry
     hartree contribution      =   39049.60053642 Ry
     xc contribution           =   -1509.68289194 Ry
     ewald contribution        =   36200.53110190 Ry
     electric field correction =       0.00000589 Ry
     smearing contrib. (-TS)   =      -0.15976841 Ry

     total magnetization       =    21.05 Bohr mag/cell
     absolute magnetization    =    24.37 Bohr mag/cell

     convergence has been achieved in  19 iterations

     Forces acting on atoms (Ry/au):

     negative rho (up, down):  7.560E-04 6.256E-04
     atom    1 type  1   force =    -0.00001014   -0.00013113    0.00072459
     atom    2 type  1   force =    -0.00061886    0.00028700    0.00124997
     atom    3 type  1   force =    -0.00041888   -0.00031153   -0.00080123
     atom    4 type  1   force =     0.00012086    0.00017409    0.00041007
     atom    5 type  1   force =     0.00088878    0.00035887    0.00000702
     atom    6 type  1   force =    -0.00060472   -0.00071928    0.00020212
     atom    7 type  1   force =    -0.00042378    0.00055649    0.00137513
     atom    8 type  1   force =    -0.00032159    0.00072151   -0.00016717
     atom    9 type  1   force =    -0.00026123    0.00013916   -0.00149769
     atom   10 type  1   force =    -0.00023406    0.00084666   -0.00029056
     atom   11 type  1   force =    -0.00028168   -0.00015688    0.00072230
     atom   12 type  1   force =    -0.00075363   -0.00047262   -0.00053868
     atom   13 type  1   force =     0.00011760    0.00025574   -0.00001843
     atom   14 type  1   force =    -0.00026691   -0.00042202   -0.00033311
     atom   15 type  1   force =    -0.00037991   -0.00028750   -0.00000467
     atom   16 type  1   force =    -0.00029942    0.00048524   -0.00013888
     atom   17 type  1   force =    -0.00012524    0.00020528    0.00035360
     atom   18 type  1   force =    -0.00064795   -0.00047369   -0.00014827
     atom   19 type  1   force =     0.00181847   -0.00119484   -0.00093768
     atom   20 type  1   force =     0.00199594    0.00111143   -0.00096058
     atom   21 type  1   force =     0.00097262   -0.00005104   -0.00452157
     atom   22 type  1   force =     0.00334176    0.00067617   -0.00151292
     atom   23 type  1   force =     0.00527121    0.00000939   -0.00204866
     atom   24 type  1   force =     0.00342842   -0.00056447   -0.00138779
     atom   25 type  1   force =    -0.00280684   -0.00136122   -0.01158391
     atom   26 type  1   force =    -0.00282175    0.00122919   -0.01154370
     atom   27 type  1   force =    -0.00289190    0.00001173   -0.01129071
     atom   28 type  1   force =    -0.00185185    0.00007156   -0.00992664
     atom   29 type  1   force =    -0.00209141   -0.00008463   -0.01064770
     atom   30 type  1   force =    -0.00184706    0.00001801   -0.00993674
     atom   31 type  1   force =    -0.00536369   -0.00026020    0.00326864
     atom   32 type  1   force =    -0.00534886    0.00016746    0.00324005
     atom   33 type  1   force =    -0.00542266    0.00009276    0.00337376
     atom   34 type  1   force =     0.00608972    0.00018077    0.02162108
     atom   35 type  1   force =     0.00610622   -0.00008305    0.02113918
     atom   36 type  1   force =     0.00608338   -0.00010259    0.02156264
     atom   37 type  2   force =    -0.00014097   -0.00092180    0.00098713

     Total force =     0.049646     Total SCF correction =     0.001714
 !ASE

     Writing output data file calc.save

     General routines

     Parallel routines

   This run was terminated on:   7: 0: 9  24Mar2018

   JOB DONE.