     Program PWSCF v.5.1rc2 (svn rev. ) starts on 20Apr2017 at 21:37:14

     Current dimensions of program PWSCF are:
     Max number of different atomic species (ntypx) = 10
     Max number of k-points (npk) =  40000
     Max angular momentum in pseudopotentials (lmaxx) =  3
     Presently no symmetry can be used with electric field

     IMPORTANT: XC functional enforced from input :
     Exchange-correlation      = RPBE ( 1  4 28  4 0)
     Any further DFT definition will be discarded
     Please, verify this is what you really want

               file Ni.UPF: wavefunction(s)  3D renormalized

     Subspace diagonalization in iterative solution of the eigenvalue problem:
     a serial algorithm will be used

     Found symmetry operation: I + ( -0.0000  0.3333  0.0000)
     This is a supercell, fractional translations are disabled

     Generating pointlists ...
     new r_m :   0.4125 (alat units)  0.7795 (a.u.) for type    1
     new r_m :   0.4125 (alat units)  0.7795 (a.u.) for type    2

     bravais-lattice index     =            0
     lattice parameter (alat)  =       1.8897  a.u.
     unit-cell volume          =    7046.4111 (a.u.)^3
     number of atoms/cell      =           45
     number of atomic types    =            2
     number of electrons       =       396.00
     number of Kohn-Sham states=          298
     kinetic-energy cutoff     =      44.0992  Ry
     charge density cutoff     =     440.9919  Ry
     convergence threshold     =      7.3E-07
     mixing beta               =       0.1000
     number of iterations used =           10  plain     mixing
     Exchange-correlation      = RPBE ( 1  4 28  4 0)
     nstep                     =           50

     celldm(1)=   1.889726  celldm(2)=   0.000000  celldm(3)=   0.000000
     celldm(4)=   0.000000  celldm(5)=   0.000000  celldm(6)=   0.000000

     crystal axes: (cart. coord. in units of alat)
               a(1) = (   7.548011   0.000000   0.000000 )
               a(2) = (  -3.774005   6.536769   0.000000 )
               a(3) = (   0.000000   0.000000  21.162925 )

     reciprocal axes: (cart. coord. in units 2 pi/alat)
               b(1) = (  0.132485  0.076490  0.000000 )
               b(2) = (  0.000000  0.152981  0.000000 )
               b(3) = (  0.000000  0.000000  0.047252 )

     PseudoPot. # 1 for Ni read from file:
     /home/alatimer/bin/psp/esp_psp_w_gbrvRu/Ni.UPF
     MD5 check sum: 8b2449ee0060d9c33484ccd47bb60870
     Pseudo is Ultrasoft + core correction, Zval = 10.0
     Generated using "atomic" code by A. Dal Corso  v.5.0.2 svn rev. 9415
     Using radial grid of 1195 points,  6 beta functions with:
                l(1) =   0
                l(2) =   0
                l(3) =   1
                l(4) =   1
                l(5) =   2
                l(6) =   2
     Q(r) pseudized with 0 coefficients

     PseudoPot. # 2 for  C read from file:
     /home/alatimer/bin/psp/esp_psp_w_gbrvRu/C.UPF
     MD5 check sum: ab446d787031eba755f1d5ee46644bb0
     Pseudo is Ultrasoft + core correction, Zval =  4.0
     Generated using "atomic" code by A. Dal Corso  v.5.0.2 svn rev. 9415
     Using radial grid of 1073 points,  4 beta functions with:
                l(1) =   0
                l(2) =   0
                l(3) =   1
                l(4) =   1
     Q(r) pseudized with 0 coefficients

     atomic species   valence    mass     pseudopotential
        Ni1           10.00    58.69340     Ni( 1.00)
        C1             4.00    12.01100      C( 1.00)

     Starting magnetic structure
     atomic species   magnetization
        Ni1          0.300
        C1           0.750

     No symmetry found

   Cartesian axes

     site n.     atom                  positions (alat units)
         1           Ni1 tau(   1) = (   0.0000000   0.0000000   7.5000000  )
         2           Ni1 tau(   2) = (   1.2580018   0.7263077   9.5543084  )
         3           Ni1 tau(   3) = (   0.0000000   1.4526154  11.6086168  )
         4           Ni1 tau(   4) = (   1.2580018   2.1789231  13.6629252  )
         5           Ni1 tau(   5) = (  -1.2580018   2.1789231   7.5000000  )
         6           Ni1 tau(   6) = (   0.0000000   2.9052308   9.5543084  )
         7           Ni1 tau(   7) = (  -1.2580018   3.6315385  11.6086168  )
         8           Ni1 tau(   8) = (  -0.0000000   4.3578462  13.6629252  )
         9           Ni1 tau(   9) = (  -2.5160037   4.3578462   7.5000000  )
        10           Ni1 tau(  10) = (  -1.2580018   5.0841539   9.5543084  )
        11           Ni1 tau(  11) = (  -2.5160037   5.8104616  11.6086168  )
        12           Ni1 tau(  12) = (  -1.2580018   6.5367693  13.6629252  )
        13           Ni1 tau(  13) = (   2.5160037   0.0000000   7.5000000  )
        14           Ni1 tau(  14) = (   3.7740055   0.7263077   9.5543084  )
        15           Ni1 tau(  15) = (   2.5160037   1.4526154  11.6086168  )
        16           Ni1 tau(  16) = (   3.7740055   2.1789231  13.6629252  )
        17           Ni1 tau(  17) = (   1.2580018   2.1789231   7.5000000  )
        18           Ni1 tau(  18) = (   2.5160037   2.9052308   9.5543084  )
        19           Ni1 tau(  19) = (   1.2580018   3.6315385  11.6086168  )
        20           Ni1 tau(  20) = (   2.5160037   4.3578462  13.6629252  )
        21           Ni1 tau(  21) = (  -0.0000000   4.3578462   7.5000000  )
        22           Ni1 tau(  22) = (   1.2580018   5.0841539   9.5543084  )
        23           Ni1 tau(  23) = (  -0.0000000   5.8104616  11.6086168  )
        24           Ni1 tau(  24) = (   1.2580018   6.5367693  13.6629252  )
        25           Ni1 tau(  25) = (   5.0320073   0.0000000   7.5000000  )
        26           Ni1 tau(  26) = (   6.2900092   0.7263077   9.5543084  )
        27           Ni1 tau(  27) = (   5.0320073   1.4526154  11.6086168  )
        28           Ni1 tau(  28) = (   6.2900092   2.1789231  13.6629252  )
        29           Ni1 tau(  29) = (   3.7740055   2.1789231   7.5000000  )
        30           Ni1 tau(  30) = (   5.0320073   2.9052308   9.5543084  )
        31           Ni1 tau(  31) = (   3.7740055   3.6315385  11.6086168  )
        32           Ni1 tau(  32) = (   5.0320073   4.3578462  13.6629252  )
        33           Ni1 tau(  33) = (   2.5160037   4.3578462   7.5000000  )
        34           Ni1 tau(  34) = (   3.7740055   5.0841539   9.5543084  )
        35           Ni1 tau(  35) = (   2.5160037   5.8104616  11.6086168  )
        36           Ni1 tau(  36) = (   3.7740055   6.5367693  13.6629252  )
        37           C1  tau(  37) = (   2.5160037   1.5000000  14.9629252  )
        38           C1  tau(  38) = (   5.0320073   1.5000000  14.9629252  )
        39           C1  tau(  39) = (  -0.0000000   1.5000000  14.9629252  )
        40           C1  tau(  40) = (   2.5160037   5.8578462  14.9629252  )
        41           C1  tau(  41) = (  -2.5160037   5.8578462  14.9629252  )
        42           C1  tau(  42) = (   3.7740055   3.6789231  14.9629252  )
        43           C1  tau(  43) = (  -1.2580018   3.6789231  14.9629252  )
        44           C1  tau(  44) = (   0.0000000   5.8578462  14.9629252  )
        45           C1  tau(  45) = (   1.2580018   3.6789231  14.9629252  )

     number of k points=    10  Fermi-Dirac smearing, width (Ry)=  0.0073
                       cart. coord. in units 2pi/alat
        k(    1) = (   0.0000000   0.0000000   0.0000000), wk =   0.1111111
        k(    2) = (   0.0000000   0.0509936   0.0000000), wk =   0.2222222
        k(    3) = (   0.0441617   0.0254968   0.0000000), wk =   0.2222222
        k(    4) = (   0.0441617   0.0764904   0.0000000), wk =   0.2222222
        k(    5) = (   0.0441617  -0.0254968   0.0000000), wk =   0.2222222
        k(    6) = (   0.0000000   0.0000000   0.0000000), wk =   0.1111111
        k(    7) = (   0.0000000   0.0509936   0.0000000), wk =   0.2222222
        k(    8) = (   0.0441617   0.0254968   0.0000000), wk =   0.2222222
        k(    9) = (   0.0441617   0.0764904   0.0000000), wk =   0.2222222
        k(   10) = (   0.0441617  -0.0254968   0.0000000), wk =   0.2222222

     Largest allocated arrays     est. size (Mb)     dimensions
     Largest temporary arrays     est. size (Mb)     dimensions

     Initial potential from superposition of free atoms
     Check: negative starting charge=(component1):   -0.000295
     Check: negative starting charge=(component2):   -0.000169

     starting charge  395.99059, renormalised to  396.00000

     negative rho (up, down):  2.946E-04 1.685E-04

     Adding external electric field

     Computed dipole along edir(3) :
        Dipole               -0.0040 Ry au,         -0.0101 Debye
        Dipole field         -0.0000 Ry au

        Potential amp.        0.0006 Ry
        Total length         38.9923 bohr

[...]

     Starting wfc are  360 randomized atomic wfcs

     Self-consistent Calculation

     iteration #  1     ecut=    44.10 Ry     beta=0.10
     Davidson diagonalization with overlap
     ethr =  1.00E-02,  avg # of iterations =  7.5

[...]

     Magnetic moment per site:
     atom:    1    charge:    3.9479    magn:    1.1267    constr:    0.0000
     atom:    2    charge:    3.9689    magn:    1.1105    constr:    0.0000
     atom:    3    charge:    3.9747    magn:    1.1057    constr:    0.0000
     atom:    4    charge:    3.9559    magn:    1.1051    constr:    0.0000
     atom:    5    charge:    3.9479    magn:    1.1267    constr:    0.0000
     atom:    6    charge:    3.9689    magn:    1.1105    constr:    0.0000
     atom:    7    charge:    3.9748    magn:    1.1057    constr:    0.0000
     atom:    8    charge:    3.9559    magn:    1.1051    constr:    0.0000
     atom:    9    charge:    3.9479    magn:    1.1267    constr:    0.0000
     atom:   10    charge:    3.9689    magn:    1.1104    constr:    0.0000
     atom:   11    charge:    3.9747    magn:    1.1057    constr:    0.0000
     atom:   12    charge:    3.9559    magn:    1.1051    constr:    0.0000
     atom:   13    charge:    3.9479    magn:    1.1267    constr:    0.0000
     atom:   14    charge:    3.9689    magn:    1.1105    constr:    0.0000
     atom:   15    charge:    3.9747    magn:    1.1057    constr:    0.0000
     atom:   16    charge:    3.9559    magn:    1.1051    constr:    0.0000
     atom:   17    charge:    3.9479    magn:    1.1267    constr:    0.0000
     atom:   18    charge:    3.9689    magn:    1.1105    constr:    0.0000
     atom:   19    charge:    3.9747    magn:    1.1057    constr:    0.0000
     atom:   20    charge:    3.9559    magn:    1.1051    constr:    0.0000
     atom:   21    charge:    3.9479    magn:    1.1267    constr:    0.0000
     atom:   22    charge:    3.9689    magn:    1.1104    constr:    0.0000
     atom:   23    charge:    3.9747    magn:    1.1057    constr:    0.0000
     atom:   24    charge:    3.9559    magn:    1.1051    constr:    0.0000
     atom:   25    charge:    3.9479    magn:    1.1267    constr:    0.0000
     atom:   26    charge:    3.9689    magn:    1.1104    constr:    0.0000
     atom:   27    charge:    3.9748    magn:    1.1057    constr:    0.0000
[...]
    11.6312  11.6724  11.6724  11.6724  11.6724  12.1229  12.1229  12.1229
    12.1229  12.1289  12.1289  12.6947  12.6947  12.7503  12.7503  12.7503
    12.7503  13.2086

[...]

 ------ SPIN DOWN ----------

[...]

     the Fermi energy is     2.5166 ev

!    total energy              =   -3728.58656431 Ry
     Harris-Foulkes estimate   =   -3728.58656576 Ry
     estimated scf accuracy    <       0.00000051 Ry

     The total energy is the sum of the following terms:

     one-electron contribution =  -25666.84856599 Ry
     hartree contribution      =   13248.65589354 Ry
     xc contribution           =   -1540.87287703 Ry
     ewald contribution        =   10230.63656670 Ry
     electric field correction =       0.00153343 Ry
     smearing contrib. (-TS)   =      -0.15911495 Ry

[...]

     convergence has been achieved in  70 iterations

     Forces acting on atoms (Ry/au):

     negative rho (up, down):  2.284E-04 1.975E-04
     atom    1 type  1   force =    -0.00002990    0.00006037    0.00469033
     atom    2 type  1   force =    -0.00011198    0.00001631   -0.00417410
     atom    3 type  1   force =    -0.00003222   -0.00003823   -0.01990322
     atom    4 type  1   force =    -0.00002946    0.00613760    0.05309730
     atom    5 type  1   force =     0.00008611    0.00000895    0.00470754
     atom    6 type  1   force =    -0.00002008   -0.00002892   -0.00418926
     atom    7 type  1   force =     0.00002434   -0.00006025   -0.01990180
     atom    8 type  1   force =    -0.00000791    0.00611219    0.05307937
     atom    9 type  1   force =     0.00001158   -0.00003751    0.00469353
     atom   10 type  1   force =    -0.00000214   -0.00011955   -0.00412202
     atom   11 type  1   force =    -0.00003937   -0.00009941   -0.01986841
     atom   12 type  1   force =    -0.00001483    0.00609160    0.05311409
     atom   13 type  1   force =    -0.00005553   -0.00000321    0.00465336
     atom   14 type  1   force =     0.00003051   -0.00002267   -0.00414747
     atom   15 type  1   force =    -0.00004962   -0.00004037   -0.01985181
     atom   16 type  1   force =     0.00001632    0.00614838    0.05312173
     atom   17 type  1   force =    -0.00009763    0.00003715    0.00469186
     atom   18 type  1   force =    -0.00007076    0.00004883   -0.00417816
     atom   19 type  1   force =    -0.00004263   -0.00003262   -0.01989714
     atom   20 type  1   force =     0.00000282    0.00614317    0.05307956
     atom   21 type  1   force =     0.00001892   -0.00012026    0.00470353
     atom   22 type  1   force =     0.00002019   -0.00009178   -0.00413879
     atom   23 type  1   force =     0.00001561   -0.00014116   -0.01984784
     atom   24 type  1   force =     0.00002330    0.00610468    0.05309797
     atom   25 type  1   force =     0.00008569   -0.00000655    0.00465538
     atom   26 type  1   force =     0.00008150    0.00001866   -0.00416675
     atom   27 type  1   force =     0.00008211   -0.00003911   -0.01985830
     atom   28 type  1   force =     0.00001364    0.00613727    0.05308847
     atom   29 type  1   force =     0.00001130    0.00005203    0.00465537
     atom   30 type  1   force =     0.00009076    0.00001866   -0.00415603
     atom   31 type  1   force =     0.00001837    0.00001010   -0.01987825
     atom   32 type  1   force =     0.00000462    0.00612865    0.05307860
     atom   33 type  1   force =    -0.00003019   -0.00001493    0.00469292
     atom   34 type  1   force =    -0.00001815   -0.00000361   -0.00413280
     atom   35 type  1   force =     0.00002393   -0.00006892   -0.01987622
     atom   36 type  1   force =    -0.00000926    0.00611304    0.05308576
     atom   37 type  2   force =     0.00000021   -0.00604635   -0.03374360
     atom   38 type  2   force =    -0.00000035   -0.00604664   -0.03374373
     atom   39 type  2   force =     0.00000011   -0.00604630   -0.03374418
     atom   40 type  2   force =    -0.00000019   -0.00604656   -0.03374505
     atom   41 type  2   force =     0.00000006   -0.00604672   -0.03374462
     atom   42 type  2   force =    -0.00000001   -0.00604658   -0.03374438
     atom   43 type  2   force =    -0.00000027   -0.00604661   -0.03374455
     atom   44 type  2   force =     0.00000032   -0.00604631   -0.03374426
     atom   45 type  2   force =     0.00000013   -0.00604652   -0.03374389

     Total force =     0.200483     Total SCF correction =     0.001440
 !ASE

     Writing output data file calc.save
     Check: negative starting charge=(component1):   -0.000455
     NEW-OLD atomic charge density approx. for the potential
     Check: negative starting charge=(component1):   -0.000476

[...]

     iteration #  1     ecut=    44.10 Ry     beta=0.10
     Davidson diagonalization with overlap
     c_bands:  1 eigenvalues not converged
     ethr =  1.86E-10,  avg # of iterations = 15.6

[...]

     Writing output data file calc.save
     Check: negative starting charge=(component1):   -0.000449
     NEW-OLD atomic charge density approx. for the potential
     Check: negative starting charge=(component1):   -0.000448

[...]

     Self-consistent Calculation

[...]

     total energy              =   -3728.65712733 Ry
     Harris-Foulkes estimate   =   -3728.65712520 Ry
     estimated scf accuracy    <       0.00000075 Ry

[...]

     iteration # 18     ecut=    44.10 Ry     beta=0.10
     Davidson diagonalization with overlap
     ethr =  1.91E-10,  avg # of iterations =  2.0

     negative rho (up, down):  2.168E-04 2.020E-04

[...]

     Adding external electric field

     Computed dipole along edir(3) :
        Dipole               -0.6259 Ry au,         -1.5908 Debye
        Dipole field         -0.0011 Ry au

        Potential amp.        0.0870 Ry
        Total length         38.9923 bohr

     Magnetic moment per site:
     atom:    1    charge:    3.9710    magn:    0.3913    constr:    0.0000
     atom:    2    charge:    3.9691    magn:    0.4001    constr:    0.0000
     atom:    3    charge:    3.9618    magn:    0.2679    constr:    0.0000
     atom:    4    charge:    3.8449    magn:    0.0321    constr:    0.0000
     atom:    5    charge:    3.9710    magn:    0.3913    constr:    0.0000
     atom:    6    charge:    3.9691    magn:    0.4001    constr:    0.0000
     atom:    7    charge:    3.9618    magn:    0.2679    constr:    0.0000
     atom:    8    charge:    3.8450    magn:    0.0321    constr:    0.0000
     atom:    9    charge:    3.9709    magn:    0.3914    constr:    0.0000
     atom:   10    charge:    3.9690    magn:    0.4002    constr:    0.0000
     atom:   11    charge:    3.9617    magn:    0.2680    constr:    0.0000
     atom:   12    charge:    3.8450    magn:    0.0321    constr:    0.0000
     atom:   13    charge:    3.9710    magn:    0.3914    constr:    0.0000
     atom:   14    charge:    3.9690    magn:    0.4001    constr:    0.0000
     atom:   15    charge:    3.9618    magn:    0.2679    constr:    0.0000
     atom:   16    charge:    3.8449    magn:    0.0321    constr:    0.0000
     atom:   17    charge:    3.9710    magn:    0.3913    constr:    0.0000
     atom:   18    charge:    3.9690    magn:    0.4001    constr:    0.0000
     atom:   19    charge:    3.9618    magn:    0.2679    constr:    0.0000
     atom:   20    charge:    3.8451    magn:    0.0321    constr:    0.0000
     atom:   21    charge:    3.9710    magn:    0.3913    constr:    0.0000
     atom:   22    charge:    3.9690    magn:    0.4001    constr:    0.0000
     atom:   23    charge:    3.9617    magn:    0.2679    constr:    0.0000
     atom:   24    charge:    3.8450    magn:    0.0321    constr:    0.0000
     atom:   25    charge:    3.9711    magn:    0.3913    constr:    0.0000
     atom:   26    charge:    3.9690    magn:    0.4002    constr:    0.0000
     atom:   27    charge:    3.9618    magn:    0.2679    constr:    0.0000
     atom:   28    charge:    3.8449    magn:    0.0321    constr:    0.0000
     atom:   29    charge:    3.9710    magn:    0.3913    constr:    0.0000
     atom:   30    charge:    3.9690    magn:    0.4001    constr:    0.0000
     atom:   31    charge:    3.9617    magn:    0.2679    constr:    0.0000
     atom:   32    charge:    3.8451    magn:    0.0321    constr:    0.0000
     atom:   33    charge:    3.9711    magn:    0.3913    constr:    0.0000
     atom:   34    charge:    3.9689    magn:    0.4002    constr:    0.0000
     atom:   35    charge:    3.9617    magn:    0.2680    constr:    0.0000
     atom:   36    charge:    3.8450    magn:    0.0321    constr:    0.0000
     atom:   37    charge:    0.5881    magn:    0.0891    constr:    0.0000
     atom:   38    charge:    0.5881    magn:    0.0891    constr:    0.0000
     atom:   39    charge:    0.5881    magn:    0.0891    constr:    0.0000
     atom:   40    charge:    0.5881    magn:    0.0891    constr:    0.0000
     atom:   41    charge:    0.5881    magn:    0.0891    constr:    0.0000
     atom:   42    charge:    0.5882    magn:    0.0891    constr:    0.0000
     atom:   43    charge:    0.5881    magn:    0.0891    constr:    0.0000
     atom:   44    charge:    0.5881    magn:    0.0891    constr:    0.0000
     atom:   45    charge:    0.5881    magn:    0.0891    constr:    0.0000

     End of self-consistent calculation

 ------ SPIN UP ------------

[...]

 ------ SPIN DOWN ----------

[...]

          k = 0.0442-0.0255 0.0000 ( 34862 PWs)   bands (ev):

   -10.7893  -9.9450  -9.1805  -9.1803  -7.9683  -7.9667  -7.6141  -7.2187
    -7.2168  -5.2444  -4.1309  -3.8180  -3.7544  -3.3096  -3.3093  -3.2063
    -3.2042  -3.1812  -3.1803  -2.9475  -2.7623  -2.5764  -2.5754  -2.2636
    -2.0834  -2.0828  -1.7311  -1.7271  -1.7256  -1.5684  -1.5637  -1.5414
    -1.4606  -1.3964  -1.3947  -1.3206  -1.2063  -1.2042  -1.1631  -1.0935
    -1.0113  -1.0109  -1.0005  -1.0000  -0.9091  -0.8854  -0.8850  -0.8605
    -0.8592  -0.8378  -0.8371  -0.7352  -0.6706  -0.6396  -0.6392  -0.6249
    -0.5058  -0.4914  -0.4139  -0.4135  -0.3746  -0.3723  -0.3486  -0.3245
    -0.3237  -0.2691  -0.2687  -0.2153  -0.2129  -0.1977  -0.1272  -0.0999
    -0.0991  -0.0580  -0.0490   0.0301   0.0316   0.0946   0.0998   0.2484
     0.2566   0.2589   0.3345   0.3345   0.3367   0.3396   0.4172   0.4175
     0.4221   0.4319   0.4599   0.4739   0.5009   0.6009   0.6022   0.6223
     0.6704   0.6742   0.6748   0.6761   0.7900   0.8067   0.8382   0.8448
     0.9119   0.9136   0.9479   0.9705   0.9707   0.9717   0.9721   1.0284
     1.0433   1.0433   1.0810   1.0822   1.1030   1.1380   1.1385   1.2409
     1.2426   1.2451   1.2569   1.2594   1.2599   1.2817   1.3235   1.3245
     1.3633   1.3827   1.3870   1.3911   1.4263   1.4269   1.5311   1.5342
     1.5342   1.5793   1.5901   1.5903   1.6629   1.6791   1.6863   1.7173
     1.7190   1.7198   1.7330   1.7806   1.7838   1.8877   1.8881   1.8974
     1.9641   1.9650   1.9822   2.0097   2.0105   2.0694   2.0767   2.0930
     2.1513   2.1757   2.1809   2.1830   2.1915   2.2093   2.2097   2.2449
     2.2454   2.2651   2.2654   2.4011   2.4077   2.4519   2.4523   2.4661
     2.4675   2.5288   2.5296   2.5840   2.5856   2.6045   2.6048   2.6067
     2.6732   2.6795   2.6798   2.7251   2.7520   2.7526   2.7550   2.7553
     2.8043   2.8167   2.8391   2.8413   2.8464   2.8976   2.8987   2.9102
     2.9111   2.9270   2.9359   3.0090   3.0639   3.1789   3.2372   3.2389
     3.2488   3.2501   3.5612   3.5612   3.6467   3.6983   3.7012   3.9214
     4.0910   4.1571   4.1572   4.2721   4.3849   4.3873   4.8489   4.8523
     5.2705   5.2730   5.3753   5.3758   5.4166   5.7468   5.7503   5.9558
     6.1708   6.2459   6.2511   6.3143   6.3765   6.3782   6.4361   6.4393
     7.2798   7.2827   7.3012   7.3126   7.6700   7.7806   7.7855   7.8046
     8.7433   8.7757   8.8651   9.1705   9.1918   9.2668   9.2988   9.3201
     9.5274   9.8537   9.8541   9.9954  10.0515  10.0559  10.2055  10.2077
    10.2501  10.3919  10.7775  11.0854  11.0884  11.1521  11.1645  11.1812
    11.1823  11.2195  11.2209  11.2315  11.4077  11.5750  11.5802  11.6867
    12.0673  12.0787  12.2343  12.2587  12.5112  12.5942  12.5949  12.7243
    12.7339  12.9523  12.9557  13.1551  13.4386  13.4423  13.5406  13.5416
    13.6451  13.6705

     the Fermi energy is     2.7084 ev

!    total energy              =   -3728.65714128 Ry
     Harris-Foulkes estimate   =   -3728.65712433 Ry
     estimated scf accuracy    <       0.00000042 Ry

     The total energy is the sum of the following terms:

     one-electron contribution =  -25511.71221300 Ry
     hartree contribution      =   13172.26470503 Ry
     xc contribution           =   -1541.67991912 Ry
     ewald contribution        =   10152.61450924 Ry
     electric field correction =       0.00069855 Ry
     smearing contrib. (-TS)   =      -0.14492198 Ry

     total magnetization       =    20.23 Bohr mag/cell
     absolute magnetization    =    22.81 Bohr mag/cell

     convergence has been achieved in  18 iterations

     Forces acting on atoms (Ry/au):

     negative rho (up, down):  2.168E-04 2.020E-04
     atom    1 type  1   force =     0.00005465   -0.00002374    0.00398721
     atom    2 type  1   force =     0.00001156   -0.00012434   -0.00704014
     atom    3 type  1   force =    -0.00004554    0.00037984    0.00148359
     atom    4 type  1   force =    -0.00003171    0.00005289    0.00114691
     atom    5 type  1   force =    -0.00007310    0.00009916    0.00394063
     atom    6 type  1   force =    -0.00007633    0.00010217   -0.00707391
     atom    7 type  1   force =    -0.00010085    0.00059380    0.00142114
     atom    8 type  1   force =    -0.00003382    0.00015125    0.00114273
     atom    9 type  1   force =     0.00002762    0.00006314    0.00402011
     atom   10 type  1   force =    -0.00010273    0.00005771   -0.00706537
     atom   11 type  1   force =    -0.00005390    0.00043309    0.00141548
     atom   12 type  1   force =    -0.00007089    0.00002839    0.00113509
     atom   13 type  1   force =    -0.00003283   -0.00004121    0.00395542
     atom   14 type  1   force =     0.00003379    0.00002350   -0.00700302
     atom   15 type  1   force =     0.00007402    0.00047161    0.00143564
     atom   16 type  1   force =     0.00002389    0.00009286    0.00109898
     atom   17 type  1   force =     0.00000476   -0.00000334    0.00389764
     atom   18 type  1   force =     0.00015102    0.00013124   -0.00698843
     atom   19 type  1   force =     0.00009468    0.00060674    0.00144040
     atom   20 type  1   force =     0.00003770    0.00021181    0.00108943
     atom   21 type  1   force =    -0.00014939    0.00007790    0.00395024
     atom   22 type  1   force =     0.00006585    0.00012235   -0.00694429
     atom   23 type  1   force =     0.00000652    0.00054473    0.00140952
     atom   24 type  1   force =     0.00005957    0.00006701    0.00110803
     atom   25 type  1   force =    -0.00002132    0.00009906    0.00399031
     atom   26 type  1   force =    -0.00004625   -0.00005900   -0.00699728
     atom   27 type  1   force =    -0.00002959    0.00045351    0.00138927
     atom   28 type  1   force =     0.00000688    0.00007448    0.00115102
     atom   29 type  1   force =     0.00006770    0.00007680    0.00397312
     atom   30 type  1   force =    -0.00007379    0.00013446   -0.00706904
     atom   31 type  1   force =     0.00000627    0.00060096    0.00135336
     atom   32 type  1   force =    -0.00000345    0.00021323    0.00112275
     atom   33 type  1   force =     0.00012230    0.00005718    0.00401527
     atom   34 type  1   force =     0.00003773    0.00000986   -0.00697754
     atom   35 type  1   force =     0.00004658    0.00048022    0.00138925
     atom   36 type  1   force =     0.00001244    0.00003115    0.00113690
     atom   37 type  2   force =     0.00000213   -0.00070645    0.00052353
     atom   38 type  2   force =    -0.00000697   -0.00070646    0.00051350
     atom   39 type  2   force =     0.00000544   -0.00070143    0.00049543
     atom   40 type  2   force =    -0.00000568   -0.00070147    0.00049163
     atom   41 type  2   force =     0.00000833   -0.00069906    0.00047576
     atom   42 type  2   force =    -0.00000323   -0.00069452    0.00052499
     atom   43 type  2   force =     0.00000585   -0.00068729    0.00050141
     atom   44 type  2   force =    -0.00000346   -0.00070214    0.00051423
     atom   45 type  2   force =    -0.00000248   -0.00069164    0.00051909

     Total force =     0.024981     Total SCF correction =     0.001580
 !ASE

     Writing output data file calc.save

     General routines

     Parallel routines

   This run was terminated on:   1:56: 3  21Apr2017

   JOB DONE.