     Program PWSCF v.5.1rc2 (svn rev. ) starts on 10Mar2017 at 14:57:20

     Current dimensions of program PWSCF are:
     Max number of different atomic species (ntypx) = 10
     Max number of k-points (npk) =  40000
     Max angular momentum in pseudopotentials (lmaxx) =  3
     Presently no symmetry can be used with electric field

     IMPORTANT: XC functional enforced from input :
     Exchange-correlation      = RPBE ( 1  4 28  4 0)
     Any further DFT definition will be discarded
     Please, verify this is what you really want

               file Ni.UPF: wavefunction(s)  3D renormalized

     Subspace diagonalization in iterative solution of the eigenvalue problem:
     a serial algorithm will be used

     Generating pointlists ...
     new r_m :   0.4125 (alat units)  0.7795 (a.u.) for type    1
     new r_m :   0.4125 (alat units)  0.7795 (a.u.) for type    2

     bravais-lattice index     =            0
     lattice parameter (alat)  =       1.8897  a.u.
     unit-cell volume          =    7046.4111 (a.u.)^3
     number of atoms/cell      =           37
     number of atomic types    =            2
     number of electrons       =       364.00
     number of Kohn-Sham states=          282
     kinetic-energy cutoff     =      44.0992  Ry
     charge density cutoff     =     440.9919  Ry
     convergence threshold     =      7.3E-07
     mixing beta               =       0.1000
     number of iterations used =           10  plain     mixing
     Exchange-correlation      = RPBE ( 1  4 28  4 0)
     nstep                     =           50

     celldm(1)=   1.889726  celldm(2)=   0.000000  celldm(3)=   0.000000
     celldm(4)=   0.000000  celldm(5)=   0.000000  celldm(6)=   0.000000

     crystal axes: (cart. coord. in units of alat)
               a(1) = (   7.548011   0.000000   0.000000 )
               a(2) = (  -3.774005   6.536769   0.000000 )
               a(3) = (   0.000000   0.000000  21.162925 )

     reciprocal axes: (cart. coord. in units 2 pi/alat)
               b(1) = (  0.132485  0.076490  0.000000 )
               b(2) = (  0.000000  0.152981  0.000000 )
               b(3) = (  0.000000  0.000000  0.047252 )

     PseudoPot. # 1 for Ni read from file:
     /home/alatimer/bin/psp/esp_psp_w_gbrvRu/Ni.UPF
     MD5 check sum: 8b2449ee0060d9c33484ccd47bb60870
     Pseudo is Ultrasoft + core correction, Zval = 10.0
     Generated using "atomic" code by A. Dal Corso  v.5.0.2 svn rev. 9415
     Using radial grid of 1195 points,  6 beta functions with:
                l(1) =   0
                l(2) =   0
                l(3) =   1
                l(4) =   1
                l(5) =   2
                l(6) =   2
     Q(r) pseudized with 0 coefficients

     PseudoPot. # 2 for  C read from file:
     /home/alatimer/bin/psp/esp_psp_w_gbrvRu/C.UPF
     MD5 check sum: ab446d787031eba755f1d5ee46644bb0
     Pseudo is Ultrasoft + core correction, Zval =  4.0
     Generated using "atomic" code by A. Dal Corso  v.5.0.2 svn rev. 9415
     Using radial grid of 1073 points,  4 beta functions with:
                l(1) =   0
                l(2) =   0
                l(3) =   1
                l(4) =   1
     Q(r) pseudized with 0 coefficients

     atomic species   valence    mass     pseudopotential
        Ni1           10.00    58.69340     Ni( 1.00)
        C1             4.00    12.01100      C( 1.00)

     Starting magnetic structure
     atomic species   magnetization
        Ni1          0.300
        C1           0.750

     No symmetry found

   Cartesian axes

     site n.     atom                  positions (alat units)
         1           Ni1 tau(   1) = (   0.0000000   0.0000000   7.5000000  )
         2           Ni1 tau(   2) = (   1.2580018   0.7263077   9.5543084  )
         3           Ni1 tau(   3) = (   0.0000000   1.4526154  11.6086168  )
         4           Ni1 tau(   4) = (   1.2580018   2.1789231  13.6629252  )
         5           Ni1 tau(   5) = (  -1.2580018   2.1789231   7.5000000  )
         6           Ni1 tau(   6) = (   0.0000000   2.9052308   9.5543084  )
         7           Ni1 tau(   7) = (  -1.2580018   3.6315385  11.6086168  )
         8           Ni1 tau(   8) = (  -0.0000000   4.3578462  13.6629252  )
         9           Ni1 tau(   9) = (  -2.5160037   4.3578462   7.5000000  )
        10           Ni1 tau(  10) = (  -1.2580018   5.0841539   9.5543084  )
        11           Ni1 tau(  11) = (  -2.5160037   5.8104616  11.6086168  )
        12           Ni1 tau(  12) = (  -1.2580018   6.5367693  13.6629252  )
        13           Ni1 tau(  13) = (   2.5160037   0.0000000   7.5000000  )
        14           Ni1 tau(  14) = (   3.7740055   0.7263077   9.5543084  )
        15           Ni1 tau(  15) = (   2.5160037   1.4526154  11.6086168  )
        16           Ni1 tau(  16) = (   3.7740055   2.1789231  13.6629252  )
        17           Ni1 tau(  17) = (   1.2580018   2.1789231   7.5000000  )
        18           Ni1 tau(  18) = (   2.5160037   2.9052308   9.5543084  )
        19           Ni1 tau(  19) = (   1.2580018   3.6315385  11.6086168  )
        20           Ni1 tau(  20) = (   2.5160037   4.3578462  13.6629252  )
        21           Ni1 tau(  21) = (  -0.0000000   4.3578462   7.5000000  )
        22           Ni1 tau(  22) = (   1.2580018   5.0841539   9.5543084  )
        23           Ni1 tau(  23) = (  -0.0000000   5.8104616  11.6086168  )
        24           Ni1 tau(  24) = (   1.2580018   6.5367693  13.6629252  )
        25           Ni1 tau(  25) = (   5.0320073   0.0000000   7.5000000  )
        26           Ni1 tau(  26) = (   6.2900092   0.7263077   9.5543084  )
        27           Ni1 tau(  27) = (   5.0320073   1.4526154  11.6086168  )
        28           Ni1 tau(  28) = (   6.2900092   2.1789231  13.6629252  )
        29           Ni1 tau(  29) = (   3.7740055   2.1789231   7.5000000  )
        30           Ni1 tau(  30) = (   5.0320073   2.9052308   9.5543084  )
        31           Ni1 tau(  31) = (   3.7740055   3.6315385  11.6086168  )
        32           Ni1 tau(  32) = (   5.0320073   4.3578462  13.6629252  )
        33           Ni1 tau(  33) = (   2.5160037   4.3578462   7.5000000  )
        34           Ni1 tau(  34) = (   3.7740055   5.0841539   9.5543084  )
        35           Ni1 tau(  35) = (   2.5160037   5.8104616  11.6086168  )
        36           Ni1 tau(  36) = (   3.7740055   6.5367693  13.6629252  )
        37           C1  tau(  37) = (   1.2779842   3.7014767  14.8602763  )

     number of k points=    10  Fermi-Dirac smearing, width (Ry)=  0.0073
                       cart. coord. in units 2pi/alat
        k(    1) = (   0.0000000   0.0000000   0.0000000), wk =   0.1111111
        k(    2) = (   0.0000000   0.0509936   0.0000000), wk =   0.2222222
        k(    3) = (   0.0441617   0.0254968   0.0000000), wk =   0.2222222
        k(    4) = (   0.0441617   0.0764904   0.0000000), wk =   0.2222222
        k(    5) = (   0.0441617  -0.0254968   0.0000000), wk =   0.2222222
        k(    6) = (   0.0000000   0.0000000   0.0000000), wk =   0.1111111
        k(    7) = (   0.0000000   0.0509936   0.0000000), wk =   0.2222222
        k(    8) = (   0.0441617   0.0254968   0.0000000), wk =   0.2222222
        k(    9) = (   0.0441617   0.0764904   0.0000000), wk =   0.2222222
        k(   10) = (   0.0441617  -0.0254968   0.0000000), wk =   0.2222222

     Largest allocated arrays     est. size (Mb)     dimensions
     Largest temporary arrays     est. size (Mb)     dimensions

     Initial potential from superposition of free atoms
     Check: negative starting charge=(component1):   -0.000345
     Check: negative starting charge=(component2):   -0.000192

     starting charge  363.99092, renormalised to  364.00000

     negative rho (up, down):  3.452E-04 1.915E-04

     Adding external electric field

     Computed dipole along edir(3) :
        Dipole               -0.0005 Ry au,         -0.0012 Debye
        Dipole field         -0.0000 Ry au

        Potential amp.        0.0001 Ry
        Total length         38.9923 bohr

[...]

     Starting wfc are  328 randomized atomic wfcs

     Self-consistent Calculation

     iteration #  1     ecut=    44.10 Ry     beta=0.10
     Davidson diagonalization with overlap
     ethr =  1.00E-02,  avg # of iterations =  6.9

[...]

     Magnetic moment per site:
     atom:    1    charge:    3.9471    magn:    1.1281    constr:    0.0000
     atom:    2    charge:    3.9665    magn:    1.1130    constr:    0.0000
     atom:    3    charge:    3.9682    magn:    1.1112    constr:    0.0000
     atom:    4    charge:    3.9589    magn:    1.1139    constr:    0.0000
     atom:    5    charge:    3.9462    magn:    1.1288    constr:    0.0000
     atom:    6    charge:    3.9662    magn:    1.1132    constr:    0.0000
     atom:    7    charge:    3.9685    magn:    1.1110    constr:    0.0000
     atom:    8    charge:    3.9604    magn:    1.1121    constr:    0.0000
     atom:    9    charge:    3.9471    magn:    1.1281    constr:    0.0000
     atom:   10    charge:    3.9665    magn:    1.1130    constr:    0.0000
     atom:   11    charge:    3.9669    magn:    1.1130    constr:    0.0000
     atom:   12    charge:    3.9482    magn:    1.1275    constr:    0.0000
     atom:   13    charge:    3.9470    magn:    1.1281    constr:    0.0000
     atom:   14    charge:    3.9665    magn:    1.1129    constr:    0.0000
     atom:   15    charge:    3.9682    magn:    1.1113    constr:    0.0000
     atom:   16    charge:    3.9477    magn:    1.1283    constr:    0.0000
     atom:   17    charge:    3.9468    magn:    1.1283    constr:    0.0000
     atom:   18    charge:    3.9662    magn:    1.1132    constr:    0.0000
     atom:   19    charge:    3.9687    magn:    1.1113    constr:    0.0000
     atom:   20    charge:    3.9610    magn:    1.1113    constr:    0.0000
     atom:   21    charge:    3.9467    magn:    1.1283    constr:    0.0000
     atom:   22    charge:    3.9663    magn:    1.1131    constr:    0.0000
     atom:   23    charge:    3.9684    magn:    1.1112    constr:    0.0000
     atom:   24    charge:    3.9479    magn:    1.1282    constr:    0.0000
     atom:   25    charge:    3.9463    magn:    1.1286    constr:    0.0000
     atom:   26    charge:    3.9665    magn:    1.1129    constr:    0.0000
     atom:   27    charge:    3.9666    magn:    1.1123    constr:    0.0000
     atom:   28    charge:    3.9477    magn:    1.1284    constr:    0.0000
     atom:   29    charge:    3.9462    magn:    1.1288    constr:    0.0000
     atom:   30    charge:    3.9665    magn:    1.1128    constr:    0.0000
     atom:   31    charge:    3.9686    magn:    1.1109    constr:    0.0000
     atom:   32    charge:    3.9482    magn:    1.1274    constr:    0.0000
     atom:   33    charge:    3.9467    magn:    1.1283    constr:    0.0000
     atom:   34    charge:    3.9665    magn:    1.1130    constr:    0.0000
     atom:   35    charge:    3.9685    magn:    1.1111    constr:    0.0000
     atom:   36    charge:    3.9482    magn:    1.1275    constr:    0.0000
[...]
    -0.3517  -0.3152  -0.3129  -0.2661  -0.2505  -0.2487  -0.2478  -0.2405
    -0.2368  -0.1995  -0.1862  -0.1085  -0.0565  -0.0563  -0.0094  -0.0090
     0.0198   0.0217   0.0243   0.0268   0.0286   0.0611   0.0726   0.0813
     0.1401   0.1519   0.1678   0.1680   0.1750   0.1752   0.1797   0.1810
     0.1843   0.1920   0.1941   0.2125   0.2153   0.2335   0.2525   0.2559
     0.2757   0.2879   0.2889   0.3422   0.4242   0.4365   0.5158   0.5376
     0.5453   0.5801   0.5870   0.6034   0.6547   0.6675   0.6695   0.6791
     0.7110   0.7125   0.7434   0.7578   0.7622   0.7651   0.7707   0.7719
     0.8145   0.8483   0.9376   0.9390   0.9527   0.9529   1.0256   1.0321
     1.0621   1.0723   1.0739   1.0778   1.0932   1.0999   1.1009   1.1193
     1.1730   1.1791   1.1794   1.1870   1.2180   1.2256   1.2663   1.2685
     1.2691   1.2751   1.2755   1.2804   1.3268   1.3284   1.3346   1.3462
     1.3524   1.3555   1.3638   1.3655   1.3711   1.3715   1.3730   1.3850
     1.3882   1.3971   1.4047   1.4216   1.4244   1.4284   1.4322   1.4349
     1.4595   1.4625   1.4710   1.4761   1.4828   1.4834   1.4890   1.4926
     1.4949   1.4979   1.5032   1.5102   1.5946   1.5952   1.6309   1.6352
     1.6354   1.6488   1.6514   1.6556   1.8838   2.3448   2.3722   2.5748
     2.7577   2.7659   2.7663   3.1297   3.8390   3.8868   4.7468   5.1410
     5.1424   5.1435   5.8687   5.8839   6.5956   6.6931   6.8435   6.8451
     7.0359   7.0862   7.1275   7.1468   7.1640   7.5612   7.5631   7.5712
     7.8438   7.8480   7.8517   7.8732   8.1322   8.1337   8.2033   8.8765
     8.8827   8.9453   9.6038   9.6756   9.6785   9.7241   9.7387   9.7419
     9.7421   9.9535   9.9977  10.0592  10.2106  10.2115  10.2281  10.2510
    10.2515  10.3821  10.6491  10.8587  10.8755  10.8757  10.9119  10.9128
    10.9356  11.0720  11.2796  11.2838  11.3384  11.6100  11.6105  11.6383
    11.6404  11.6410  11.7120  11.7135  11.7188  11.7421  11.7421  11.9425
    12.1569  12.3670  12.4470  12.5733  12.5802  12.6885  12.7635  12.7920
    12.8236  13.2964

[...]

 ------ SPIN DOWN ----------

[...]

     the Fermi energy is     2.1630 ev

!    total energy              =   -3634.74136434 Ry
     Harris-Foulkes estimate   =   -3634.74136369 Ry
     estimated scf accuracy    <       0.00000047 Ry

     The total energy is the sum of the following terms:

     one-electron contribution =  -24251.99206306 Ry
     hartree contribution      =   12526.21804905 Ry
     xc contribution           =   -1509.33134469 Ry
     ewald contribution        =    9600.52707617 Ry
     electric field correction =       0.00004697 Ry
     smearing contrib. (-TS)   =      -0.16312878 Ry

[...]

     convergence has been achieved in  55 iterations

     Forces acting on atoms (Ry/au):

     negative rho (up, down):  2.679E-04 2.098E-04
     atom    1 type  1   force =    -0.00004805    0.00006282    0.00474646
     atom    2 type  1   force =     0.00000918    0.00017289   -0.00329226
     atom    3 type  1   force =    -0.00043099    0.00135086    0.00248674
     atom    4 type  1   force =     0.00028379    0.01574658    0.04186344
     atom    5 type  1   force =     0.00057825    0.00023916    0.00518570
     atom    6 type  1   force =    -0.00000038   -0.00004516   -0.00285587
     atom    7 type  1   force =     0.00065688   -0.00134283    0.00180024
     atom    8 type  1   force =     0.00691273   -0.00314321    0.03861248
     atom    9 type  1   force =     0.00000560    0.00002468    0.00472879
     atom   10 type  1   force =     0.00017375   -0.00002490   -0.00320967
     atom   11 type  1   force =    -0.00002723   -0.00005772    0.00408778
     atom   12 type  1   force =    -0.00123738    0.00002525   -0.00641667
     atom   13 type  1   force =     0.00007675    0.00007141    0.00474752
     atom   14 type  1   force =     0.00067353    0.00043592   -0.00455492
     atom   15 type  1   force =     0.00038577    0.00135770    0.00254218
     atom   16 type  1   force =     0.00931099   -0.00568672   -0.00761837
     atom   17 type  1   force =     0.00001401    0.00014469    0.00470589
     atom   18 type  1   force =    -0.00003311   -0.00003572   -0.00283972
     atom   19 type  1   force =    -0.00005125   -0.00022941   -0.02152490
     atom   20 type  1   force =    -0.00241668   -0.00096014    0.03568926
     atom   21 type  1   force =     0.00020331   -0.00004317    0.00470152
     atom   22 type  1   force =    -0.00000880   -0.00007035   -0.00280042
     atom   23 type  1   force =     0.00142463   -0.00004178    0.00202262
     atom   24 type  1   force =    -0.00007697    0.01102343   -0.00680799
     atom   25 type  1   force =    -0.00002334   -0.00064180    0.00516768
     atom   26 type  1   force =    -0.00070425    0.00048125   -0.00464435
     atom   27 type  1   force =    -0.00003773   -0.00017248    0.00700870
     atom   28 type  1   force =    -0.00924518   -0.00555950   -0.00786897
     atom   29 type  1   force =    -0.00059532    0.00022180    0.00517621
     atom   30 type  1   force =     0.00002414   -0.00101526   -0.00489458
     atom   31 type  1   force =    -0.00055256   -0.00142982    0.00156407
     atom   32 type  1   force =     0.00025372    0.00087919   -0.00607000
     atom   33 type  1   force =    -0.00020885   -0.00006259    0.00469804
     atom   34 type  1   force =    -0.00016644   -0.00003249   -0.00317586
     atom   35 type  1   force =    -0.00146425    0.00013085    0.00173533
     atom   36 type  1   force =     0.00132905    0.00026742   -0.00632246
     atom   37 type  2   force =    -0.00498731   -0.01204086   -0.08837365

     Total force =     0.119841     Total SCF correction =     0.002301
 !ASE

     Writing output data file calc.save
     Check: negative starting charge=(component1):   -0.000535
     NEW-OLD atomic charge density approx. for the potential
     Check: negative starting charge=(component1):   -0.000541

[...]

     Total force =     0.022549     Total SCF correction =     0.002830
     SCF correction compared to forces is large: reduce conv_thr to get better values
 !ASE

[...]

     Total force =     0.019976     Total SCF correction =     0.001986
 !ASE

     Writing output data file calc.save
     Check: negative starting charge=(component1):   -0.000544
     NEW-OLD atomic charge density approx. for the potential
     Check: negative starting charge=(component1):   -0.000545

[...]

     Self-consistent Calculation

[...]

     total energy              =   -3634.76762699 Ry
     Harris-Foulkes estimate   =   -3634.76762695 Ry
     estimated scf accuracy    <       0.00000211 Ry

[...]

     iteration # 12     ecut=    44.10 Ry     beta=0.10
     Davidson diagonalization with overlap
     ethr =  4.56E-10,  avg # of iterations =  1.0

     negative rho (up, down):  2.702E-04 2.129E-04

[...]

     Adding external electric field

     Computed dipole along edir(3) :
        Dipole               -0.1162 Ry au,         -0.2954 Debye
        Dipole field         -0.0002 Ry au

        Potential amp.        0.0162 Ry
        Total length         38.9923 bohr

     Magnetic moment per site:
     atom:    1    charge:    3.9714    magn:    0.3709    constr:    0.0000
     atom:    2    charge:    3.9688    magn:    0.3835    constr:    0.0000
     atom:    3    charge:    3.9675    magn:    0.3548    constr:    0.0000
     atom:    4    charge:    3.8839    magn:    0.0862    constr:    0.0000
     atom:    5    charge:    3.9712    magn:    0.3814    constr:    0.0000
     atom:    6    charge:    3.9686    magn:    0.3870    constr:    0.0000
     atom:    7    charge:    3.9679    magn:    0.3546    constr:    0.0000
     atom:    8    charge:    3.8738    magn:    0.0858    constr:    0.0000
     atom:    9    charge:    3.9713    magn:    0.3709    constr:    0.0000
     atom:   10    charge:    3.9687    magn:    0.3835    constr:    0.0000
     atom:   11    charge:    3.9686    magn:    0.3715    constr:    0.0000
     atom:   12    charge:    3.9630    magn:    0.3186    constr:    0.0000
     atom:   13    charge:    3.9714    magn:    0.3709    constr:    0.0000
     atom:   14    charge:    3.9687    magn:    0.3830    constr:    0.0000
     atom:   15    charge:    3.9677    magn:    0.3548    constr:    0.0000
     atom:   16    charge:    3.9438    magn:    0.3454    constr:    0.0000
     atom:   17    charge:    3.9712    magn:    0.3728    constr:    0.0000
     atom:   18    charge:    3.9687    magn:    0.3870    constr:    0.0000
     atom:   19    charge:    3.9658    magn:    0.3731    constr:    0.0000
     atom:   20    charge:    3.8669    magn:    0.0863    constr:    0.0000
     atom:   21    charge:    3.9712    magn:    0.3729    constr:    0.0000
     atom:   22    charge:    3.9686    magn:    0.3870    constr:    0.0000
     atom:   23    charge:    3.9682    magn:    0.3545    constr:    0.0000
     atom:   24    charge:    3.9400    magn:    0.3450    constr:    0.0000
     atom:   25    charge:    3.9712    magn:    0.3813    constr:    0.0000
     atom:   26    charge:    3.9687    magn:    0.3830    constr:    0.0000
     atom:   27    charge:    3.9677    magn:    0.3911    constr:    0.0000
     atom:   28    charge:    3.9454    magn:    0.3456    constr:    0.0000
     atom:   29    charge:    3.9712    magn:    0.3814    constr:    0.0000
     atom:   30    charge:    3.9686    magn:    0.3829    constr:    0.0000
     atom:   31    charge:    3.9680    magn:    0.3546    constr:    0.0000
     atom:   32    charge:    3.9614    magn:    0.3178    constr:    0.0000
     atom:   33    charge:    3.9712    magn:    0.3729    constr:    0.0000
     atom:   34    charge:    3.9687    magn:    0.3835    constr:    0.0000
     atom:   35    charge:    3.9682    magn:    0.3545    constr:    0.0000
     atom:   36    charge:    3.9625    magn:    0.3184    constr:    0.0000
     atom:   37    charge:    0.5520    magn:   -0.0024    constr:    0.0000

     End of self-consistent calculation

 ------ SPIN UP ------------

[...]

 ------ SPIN DOWN ----------

[...]

          k = 0.0442-0.0255 0.0000 ( 34862 PWs)   bands (ev):

    -8.9927  -5.8263  -4.7209  -4.4640  -3.7093  -3.6711  -3.5011  -2.8529
    -2.8477  -2.5842  -2.3416  -2.3031  -2.1854  -2.0494  -1.9829  -1.8832
    -1.8626  -1.8006  -1.6933  -1.6769  -1.5897  -1.3970  -1.3842  -1.3014
    -1.2844  -1.2504  -1.2294  -1.2054  -1.1762  -1.1209  -1.1028  -1.0770
    -0.9544  -0.9210  -0.8908  -0.8788  -0.8367  -0.7655  -0.7450  -0.7399
    -0.7217  -0.7055  -0.6434  -0.6033  -0.5754  -0.5408  -0.4664  -0.4401
    -0.4187  -0.3689  -0.3342  -0.3333  -0.2637  -0.2617  -0.2378  -0.2347
    -0.1417  -0.1204  -0.0830  -0.0746  -0.0374  -0.0080   0.0162   0.0934
     0.0984   0.1094   0.1625   0.1630   0.2109   0.2249   0.2317   0.2510
     0.2887   0.3097   0.3429   0.3484   0.3869   0.3979   0.4290   0.4329
     0.4478   0.4834   0.5145   0.5221   0.5384   0.5616   0.5769   0.5969
     0.6046   0.6197   0.6219   0.6411   0.6545   0.6753   0.6985   0.7096
     0.7319   0.7374   0.7526   0.7637   0.7851   0.8146   0.8179   0.8376
     0.8576   0.8592   0.8874   0.8898   0.9016   0.9155   0.9280   0.9287
     0.9828   0.9858   1.0111   1.0469   1.0744   1.0863   1.1248   1.1499
     1.1584   1.2204   1.2449   1.2481   1.2930   1.2933   1.3165   1.3254
     1.3553   1.3569   1.3716   1.3795   1.4069   1.4203   1.5195   1.5219
     1.5752   1.5782   1.5990   1.6174   1.6245   1.6637   1.6931   1.7105
     1.7250   1.7323   1.7508   1.7646   1.7844   1.8074   1.8173   1.8476
     1.8575   1.8814   1.8917   1.9236   1.9335   1.9710   1.9729   1.9835
     1.9969   2.0159   2.0208   2.0348   2.0664   2.0895   2.1284   2.1294
     2.1488   2.1576   2.1748   2.1774   2.1918   2.2253   2.2341   2.2704
     2.2712   2.2807   2.2974   2.3027   2.3060   2.3197   2.3363   2.3631
     2.4028   2.4121   2.4328   2.4423   2.4459   2.4554   2.5164   2.5423
     2.7923   2.8144   2.8852   2.9077   3.0595   3.1304   3.1961   3.3133
     3.5312   3.7921   3.9101   4.1143   4.2816   4.4026   4.4149   4.6559
     4.7897   5.0221   5.1460   5.3918   5.6091   5.6712   5.9351   6.1438
     6.3881   6.5861   6.8214   7.0207   7.0629   7.2370   7.3721   7.5254
     7.5634   8.2066   8.3327   8.4610   8.5606   8.9508   8.9920   9.0131
     9.1584   9.1676   9.2437   9.2601   9.3705   9.3794   9.4725   9.5541
     9.5744   9.6302   9.7822  10.0609  10.0685  10.2467  10.4565  10.4936
    10.6572  10.7942  10.8252  10.9484  10.9553  11.1305  11.2179  11.2816
    11.3343  11.4331  11.5833  11.6711  11.7063  11.7866  11.8959  11.9395
    12.0002  12.1674  12.2689  12.3105  12.3713  12.6014  12.6569  12.7546
    12.8349  13.0720  13.1470  13.1612  13.2022  13.2350  13.3050  13.4757
    13.5245  13.5624

     the Fermi energy is     2.1887 ev

!    total energy              =   -3634.76762676 Ry
     Harris-Foulkes estimate   =   -3634.76762759 Ry
     estimated scf accuracy    <       0.00000060 Ry

     The total energy is the sum of the following terms:

     one-electron contribution =  -24302.69827172 Ry
     hartree contribution      =   12551.73837130 Ry
     xc contribution           =   -1509.48404331 Ry
     ewald contribution        =    9625.83854081 Ry
     electric field correction =       0.00002408 Ry
     smearing contrib. (-TS)   =      -0.16224793 Ry

     total magnetization       =    19.95 Bohr mag/cell
     absolute magnetization    =    23.47 Bohr mag/cell

     convergence has been achieved in  12 iterations

     Forces acting on atoms (Ry/au):

     negative rho (up, down):  2.702E-04 2.129E-04
     atom    1 type  1   force =    -0.00016077    0.00006967    0.00454308
     atom    2 type  1   force =     0.00000951    0.00027867   -0.00367502
     atom    3 type  1   force =     0.00035355    0.00015429    0.00041473
     atom    4 type  1   force =    -0.00005322    0.00002021   -0.00092490
     atom    5 type  1   force =     0.00047082    0.00034660    0.00542725
     atom    6 type  1   force =    -0.00073988   -0.00023629   -0.00396747
     atom    7 type  1   force =     0.00029669    0.00020283   -0.00001846
     atom    8 type  1   force =    -0.00037805    0.00030148   -0.00107769
     atom    9 type  1   force =     0.00004576   -0.00020893    0.00459976
     atom   10 type  1   force =     0.00029334   -0.00017682   -0.00374400
     atom   11 type  1   force =     0.00012071    0.00032806    0.00081572
     atom   12 type  1   force =    -0.00012040    0.00027355   -0.00069402
     atom   13 type  1   force =     0.00017328    0.00002446    0.00454855
     atom   14 type  1   force =     0.00039717    0.00025518   -0.00489747
     atom   15 type  1   force =    -0.00034558    0.00012899    0.00042539
     atom   16 type  1   force =    -0.00046233   -0.00012830   -0.00010280
     atom   17 type  1   force =    -0.00003212   -0.00002704    0.00429994
     atom   18 type  1   force =     0.00073259   -0.00027924   -0.00394173
     atom   19 type  1   force =    -0.00007974   -0.00002612   -0.00175427
     atom   20 type  1   force =    -0.00119637   -0.00054178   -0.00035981
     atom   21 type  1   force =    -0.00009987    0.00002764    0.00437641
     atom   22 type  1   force =    -0.00004178    0.00092035   -0.00382816
     atom   23 type  1   force =     0.00032425   -0.00038186    0.00008727
     atom   24 type  1   force =    -0.00011434   -0.00048195   -0.00009169
     atom   25 type  1   force =    -0.00001219   -0.00057515    0.00541053
     atom   26 type  1   force =    -0.00035210    0.00033505   -0.00489912
     atom   27 type  1   force =     0.00003049    0.00003040   -0.00047512
     atom   28 type  1   force =     0.00050353    0.00002508   -0.00007498
     atom   29 type  1   force =    -0.00043653    0.00031260    0.00539286
     atom   30 type  1   force =     0.00008991   -0.00032709   -0.00496015
     atom   31 type  1   force =    -0.00024262    0.00014248   -0.00005805
     atom   32 type  1   force =     0.00016382   -0.00004662   -0.00022546
     atom   33 type  1   force =     0.00005478    0.00003869    0.00432957
     atom   34 type  1   force =    -0.00020439   -0.00013766   -0.00377343
     atom   35 type  1   force =    -0.00036524   -0.00032224    0.00004667
     atom   36 type  1   force =     0.00024350    0.00039222   -0.00059776
     atom   37 type  2   force =     0.00113381   -0.00071142   -0.00057617

     Total force =     0.019611     Total SCF correction =     0.002528
     SCF correction compared to forces is large: reduce conv_thr to get better values
 !ASE

     Writing output data file calc.save

     General routines

     Parallel routines

   This run was terminated on:  20:49:51  10Mar2017

   JOB DONE.