     Program PWSCF v.5.1rc2 (svn rev. ) starts on 20Apr2018 at 13:26: 2

     Current dimensions of program PWSCF are:
     Max number of different atomic species (ntypx) = 10
     Max number of k-points (npk) =  40000
     Max angular momentum in pseudopotentials (lmaxx) =  3
     Presently no symmetry can be used with electric field

     IMPORTANT: XC functional enforced from input :
     Exchange-correlation      = RPBE ( 1  4 28  4 0)
     Any further DFT definition will be discarded
     Please, verify this is what you really want

     Subspace diagonalization in iterative solution of the eigenvalue problem:
     a serial algorithm will be used

     Generating pointlists ...
     new r_m :   0.4125 (alat units)  0.7795 (a.u.) for type    1
     new r_m :   0.4125 (alat units)  0.7795 (a.u.) for type    2

     bravais-lattice index     =            0
     lattice parameter (alat)  =       1.8897  a.u.
     unit-cell volume          =   12682.1321 (a.u.)^3
     number of atoms/cell      =           37
     number of atomic types    =            2
     number of electrons       =       330.00
     number of Kohn-Sham states=          265
     kinetic-energy cutoff     =      44.0992  Ry
     charge density cutoff     =     440.9919  Ry
     convergence threshold     =      7.3E-07
     mixing beta               =       0.1000
     number of iterations used =           10  plain     mixing
     Exchange-correlation      = RPBE ( 1  4 28  4 0)
     nstep                     =           50

     celldm(1)=   1.889726  celldm(2)=   0.000000  celldm(3)=   0.000000
     celldm(4)=   0.000000  celldm(5)=   0.000000  celldm(6)=   0.000000

     crystal axes: (cart. coord. in units of alat)
               a(1) = (   6.191574   0.000000   0.000000 )
               a(2) = (   0.000000   7.583099   0.000000 )
               a(3) = (   0.000000   0.000000  40.026524 )

     reciprocal axes: (cart. coord. in units 2 pi/alat)
               b(1) = (  0.161510  0.000000  0.000000 )
               b(2) = (  0.000000  0.131872  0.000000 )
               b(3) = (  0.000000  0.000000  0.024983 )

     PseudoPot. # 1 for Co read from file:
     /home/alatimer/bin/psp/esp_psp_w_gbrvRu/Co.UPF
     MD5 check sum: f36dda9fe147c5f42efc2a4f7ec0da3d
     Pseudo is Ultrasoft + core correction, Zval =  9.0
     Generated by new atomic code, or converted to UPF format
     Using radial grid of  937 points,  3 beta functions with:
                l(1) =   1
                l(2) =   2
                l(3) =   2
     Q(r) pseudized with  8 coefficients,  rinner =    1.000   1.000   1.000
                                                       1.000   1.000

     PseudoPot. # 2 for  O read from file:
     /home/alatimer/bin/psp/esp_psp_w_gbrvRu/O.UPF
     MD5 check sum: e057bbcf3229fb5d8c36c0c92f9568b4
     Pseudo is Ultrasoft + core correction, Zval =  6.0
     Generated using "atomic" code by A. Dal Corso  v.5.0.2 svn rev. 9415
     Using radial grid of 1095 points,  4 beta functions with:
                l(1) =   0
                l(2) =   0
                l(3) =   1
                l(4) =   1
     Q(r) pseudized with 0 coefficients

     atomic species   valence    mass     pseudopotential
        Co1            9.00    58.93320     Co( 1.00)
        O1             6.00    15.99940      O( 1.00)

     Starting magnetic structure
     atomic species   magnetization
        Co1          0.444
        O1           0.667

     No symmetry found

   Cartesian axes

     site n.     atom                  positions (alat units)
         1           Co1 tau(   1) = (   4.1277161   1.2638498  24.0265242  )
         2           Co1 tau(   2) = (   4.1277161   3.7915494  24.0265242  )
         3           Co1 tau(   3) = (   4.1277161   6.3192490  24.0265242  )
         4           Co1 tau(   4) = (   2.0638581   0.0000000  23.2968402  )
         5           Co1 tau(   5) = (   2.0638581   2.5276996  23.2968402  )
         6           Co1 tau(   6) = (   2.0638581   5.0553992  23.2968402  )
         7           Co1 tau(   7) = (   0.0000000   1.2638498  22.5671562  )
         8           Co1 tau(   8) = (   0.0000000   3.7915494  22.5671562  )
         9           Co1 tau(   9) = (   0.0000000   6.3192490  22.5671562  )
        10           Co1 tau(  10) = (   4.1277161   0.0000000  21.8374721  )
        11           Co1 tau(  11) = (   4.1277161   2.5276996  21.8374721  )
        12           Co1 tau(  12) = (   4.1277161   5.0553992  21.8374721  )
        13           Co1 tau(  13) = (   2.0638581   1.2638498  21.1077881  )
        14           Co1 tau(  14) = (   2.0638581   3.7915494  21.1077881  )
        15           Co1 tau(  15) = (   2.0638581   6.3192490  21.1077881  )
        16           Co1 tau(  16) = (   0.0000000   0.0000000  20.3781041  )
        17           Co1 tau(  17) = (   0.0000000   2.5276996  20.3781041  )
        18           Co1 tau(  18) = (   0.0000000   5.0553992  20.3781041  )
        19           Co1 tau(  19) = (   4.1277161   1.2638498  19.6484201  )
        20           Co1 tau(  20) = (   4.1277161   3.7915494  19.6484201  )
        21           Co1 tau(  21) = (   4.1277161   6.3192490  19.6484201  )
        22           Co1 tau(  22) = (   2.0638581   0.0000000  18.9187361  )
        23           Co1 tau(  23) = (   2.0638581   2.5276996  18.9187361  )
        24           Co1 tau(  24) = (   2.0638581   5.0553992  18.9187361  )
        25           Co1 tau(  25) = (   0.0000000   1.2638498  18.1890521  )
        26           Co1 tau(  26) = (   0.0000000   3.7915494  18.1890521  )
        27           Co1 tau(  27) = (   0.0000000   6.3192490  18.1890521  )
        28           Co1 tau(  28) = (   4.1277161   0.0000000  17.4593680  )
        29           Co1 tau(  29) = (   4.1277161   2.5276996  17.4593680  )
        30           Co1 tau(  30) = (   4.1277161   5.0553992  17.4593680  )
        31           Co1 tau(  31) = (   2.0638581   1.2638498  16.7296840  )
        32           Co1 tau(  32) = (   2.0638581   3.7915494  16.7296840  )
        33           Co1 tau(  33) = (   2.0638581   6.3192490  16.7296840  )
        34           Co1 tau(  34) = (   0.0000000   0.0000000  16.0000000  )
        35           Co1 tau(  35) = (   0.0000000   2.5276996  16.0000000  )
        36           Co1 tau(  36) = (   0.0000000   5.0553992  16.0000000  )
        37           O1  tau(  37) = (   0.0000000   2.5276996  23.7671562  )

     number of k points=    10  Fermi-Dirac smearing, width (Ry)=  0.0073
                       cart. coord. in units 2pi/alat
        k(    1) = (   0.0000000   0.0000000   0.0000000), wk =   0.1111111
        k(    2) = (   0.0000000   0.0439574   0.0000000), wk =   0.2222222
        k(    3) = (   0.0538366   0.0000000   0.0000000), wk =   0.2222222
        k(    4) = (   0.0538366   0.0439574   0.0000000), wk =   0.2222222
        k(    5) = (   0.0538366  -0.0439574   0.0000000), wk =   0.2222222
        k(    6) = (   0.0000000   0.0000000   0.0000000), wk =   0.1111111
        k(    7) = (   0.0000000   0.0439574   0.0000000), wk =   0.2222222
        k(    8) = (   0.0538366   0.0000000   0.0000000), wk =   0.2222222
        k(    9) = (   0.0538366   0.0439574   0.0000000), wk =   0.2222222
        k(   10) = (   0.0538366  -0.0439574   0.0000000), wk =   0.2222222

     Largest allocated arrays     est. size (Mb)     dimensions
     Largest temporary arrays     est. size (Mb)     dimensions

     Check: negative/imaginary core charge=   -0.000002    0.000000

     Initial potential from superposition of free atoms
     Check: negative starting charge=(component1):   -0.004336
     Check: negative starting charge=(component2):   -0.001665

     starting charge  329.99032, renormalised to  330.00000

     negative rho (up, down):  4.336E-03 1.665E-03

     Adding external electric field

     Computed dipole along edir(3) :
        Dipole               -0.0012 Ry au,         -0.0031 Debye
        Dipole field         -0.0000 Ry au

        Potential amp.        0.0002 Ry
        Total length         73.7482 bohr

[...]

     Starting wfc are  328 randomized atomic wfcs

     Self-consistent Calculation

     iteration #  1     ecut=    44.10 Ry     beta=0.10
     Davidson diagonalization with overlap
     ethr =  1.00E-02,  avg # of iterations =  7.5

[...]

     Magnetic moment per site:
     atom:    1    charge:    3.1749    magn:    1.4240    constr:    0.0000
     atom:    2    charge:    3.1750    magn:    1.4240    constr:    0.0000
     atom:    3    charge:    3.1750    magn:    1.4228    constr:    0.0000
     atom:    4    charge:    3.2024    magn:    1.3965    constr:    0.0000
     atom:    5    charge:    3.2032    magn:    1.3971    constr:    0.0000
     atom:    6    charge:    3.2024    magn:    1.3965    constr:    0.0000
     atom:    7    charge:    3.2166    magn:    1.3849    constr:    0.0000
     atom:    8    charge:    3.2166    magn:    1.3849    constr:    0.0000
     atom:    9    charge:    3.2171    magn:    1.3817    constr:    0.0000
     atom:   10    charge:    3.2302    magn:    1.3685    constr:    0.0000
     atom:   11    charge:    3.2322    magn:    1.3669    constr:    0.0000
     atom:   12    charge:    3.2302    magn:    1.3685    constr:    0.0000
     atom:   13    charge:    3.2310    magn:    1.3692    constr:    0.0000
     atom:   14    charge:    3.2310    magn:    1.3691    constr:    0.0000
     atom:   15    charge:    3.2303    magn:    1.3694    constr:    0.0000
     atom:   16    charge:    3.2309    magn:    1.3682    constr:    0.0000
     atom:   17    charge:    3.2296    magn:    1.3698    constr:    0.0000
     atom:   18    charge:    3.2309    magn:    1.3682    constr:    0.0000
     atom:   19    charge:    3.2305    magn:    1.3684    constr:    0.0000
     atom:   20    charge:    3.2305    magn:    1.3684    constr:    0.0000
     atom:   21    charge:    3.2301    magn:    1.3687    constr:    0.0000
     atom:   22    charge:    3.2307    magn:    1.3692    constr:    0.0000
     atom:   23    charge:    3.2304    magn:    1.3693    constr:    0.0000
     atom:   24    charge:    3.2307    magn:    1.3692    constr:    0.0000
     atom:   25    charge:    3.2306    magn:    1.3681    constr:    0.0000
     atom:   26    charge:    3.2306    magn:    1.3681    constr:    0.0000
     atom:   27    charge:    3.2300    magn:    1.3688    constr:    0.0000
     atom:   28    charge:    3.2158    magn:    1.3817    constr:    0.0000
     atom:   29    charge:    3.2162    magn:    1.3816    constr:    0.0000
     atom:   30    charge:    3.2158    magn:    1.3817    constr:    0.0000
     atom:   31    charge:    3.2032    magn:    1.3956    constr:    0.0000
     atom:   32    charge:    3.2031    magn:    1.3956    constr:    0.0000
     atom:   33    charge:    3.2028    magn:    1.3957    constr:    0.0000
     atom:   34    charge:    3.1749    magn:    1.4231    constr:    0.0000
     atom:   35    charge:    3.1750    magn:    1.4232    constr:    0.0000
     atom:   36    charge:    3.1749    magn:    1.4231    constr:    0.0000
[...]
    -4.5173  -4.4948  -4.4797  -4.4781  -4.4479  -4.4075  -4.3977  -4.3432
    -4.3121  -4.2487  -4.2104  -4.1260  -4.1207  -4.1014  -4.0765  -4.0300
    -3.9850  -3.9344  -3.8722  -3.8325  -3.8215  -3.8048  -3.7395  -3.6980
    -3.6911  -3.6820  -3.6678  -3.6582  -3.6171  -3.5968  -3.5843  -3.5388
    -3.5318  -3.5278  -3.5026  -3.4981  -3.4546  -3.4178  -3.4132  -3.3691
    -3.3643  -3.3573  -3.3478  -3.3287  -3.2590  -3.2308  -3.2229  -3.2024
    -3.1972  -3.1559  -3.1451  -3.1386  -3.1296  -3.1140  -3.1121  -3.1005
    -3.0838  -3.0602  -3.0407  -3.0195  -2.9961  -2.9687  -2.9332  -2.9303
    -2.9228  -2.9134  -2.9020  -2.8988  -2.8763  -2.8700  -2.8561  -2.8493
    -2.8344  -2.8167  -2.7998  -2.7780  -2.7614  -2.7560  -2.7264  -2.6993
    -2.6638  -2.6608  -2.6534  -2.6271  -2.5898  -2.5742  -2.5716  -2.5454
    -2.5020  -2.4987  -2.4970  -2.4690  -2.4284  -2.4086  -2.3706  -2.3607
    -2.3403  -2.3177  -2.3167  -2.3158  -2.2773  -2.2709  -2.2320  -2.1689
    -2.1456  -2.1342  -2.1033  -2.0710  -2.0516  -2.0500  -2.0400  -2.0175
    -2.0067  -2.0031  -2.0011  -1.9964  -1.9279  -1.9192  -1.9084  -1.9004
    -1.8841  -1.8645  -1.8444  -1.8311  -1.8235  -1.8152  -1.8002  -1.7913
    -1.7896  -1.7612  -1.7531  -1.7216  -1.7061  -1.6961  -1.6826  -1.6190
    -1.5996  -1.5823  -1.5749  -1.5720  -1.5634  -1.5423  -1.5028  -1.5021
    -1.5000  -1.4906  -1.4764  -1.4729  -1.4588  -1.4306  -1.4204  -1.3992
    -1.3959  -1.3817  -1.3678  -1.3621  -1.2779  -1.2546  -1.1878  -1.1498
    -0.9212  -0.8009  -0.5824  -0.3662  -0.3132  -0.1245   0.0941   0.5544
     0.6185   0.6822   0.6936   0.8284   0.9102   0.9486   1.0796   1.3121
     1.4769   1.5656   1.6916   1.8354   2.2336   2.3857   2.6699   2.9000
     2.9275   2.9476   3.2001   3.2303   3.2979   3.4069   3.5602   3.8394
     4.0698   4.1084   4.1498   4.3560   4.5745   4.8094   4.9276   4.9906
     5.0226   5.2544   5.2873   5.5558   5.7350   5.8625   5.8705   6.0105
     6.0508   6.0510   6.0657   6.1080   6.2621   6.3035   6.3766   6.5053
     6.5073   6.5260   6.5449   6.6843   6.7459   6.7968   6.9190   7.1376
     7.1691   7.1861   7.1955   7.2703   7.2948   7.4097   7.4105   7.4134
     7.4440

[...]

 ------ SPIN DOWN ----------

[...]

     the Fermi energy is    -0.4301 ev

!    total energy              =   -2918.85564903 Ry
     Harris-Foulkes estimate   =   -2918.85564455 Ry
     estimated scf accuracy    <       0.00000068 Ry

     The total energy is the sum of the following terms:

     one-electron contribution =  -62410.70984659 Ry
     hartree contribution      =   31506.83295338 Ry
     xc contribution           =   -1336.31252404 Ry
     ewald contribution        =   29321.44557696 Ry
     electric field correction =       0.00000088 Ry
     smearing contrib. (-TS)   =      -0.11180962 Ry

[...]

     convergence has been achieved in  51 iterations

     Forces acting on atoms (Ry/au):

     negative rho (up, down):  7.490E-03 1.670E-02
     atom    1 type  1   force =    -0.01294960   -0.00623166   -0.02476018
     atom    2 type  1   force =    -0.01294766    0.00623684   -0.02476029
     atom    3 type  1   force =    -0.00453821   -0.00000495   -0.02721665
     atom    4 type  1   force =     0.01757069   -0.00749497   -0.01436454
     atom    5 type  1   force =     0.00568417    0.00000397    0.00544275
     atom    6 type  1   force =     0.01757061    0.00748994   -0.01436442
     atom    7 type  1   force =     0.00270756   -0.08143344   -0.05922312
     atom    8 type  1   force =     0.00270660    0.08143943   -0.05922386
     atom    9 type  1   force =    -0.00328841   -0.00000461    0.00781981
     atom   10 type  1   force =    -0.00222994    0.00001972    0.01781732
     atom   11 type  1   force =    -0.02245757    0.00000551    0.00077148
     atom   12 type  1   force =    -0.00222940   -0.00002496    0.01781850
     atom   13 type  1   force =     0.00378499   -0.00224169    0.00660123
     atom   14 type  1   force =     0.00378479    0.00224627    0.00660139
     atom   15 type  1   force =     0.00014345   -0.00000478    0.00656671
     atom   16 type  1   force =     0.00158692   -0.00374141   -0.00179868
     atom   17 type  1   force =     0.00090078    0.00000409   -0.00225555
     atom   18 type  1   force =     0.00158720    0.00373696   -0.00179798
     atom   19 type  1   force =    -0.00083459   -0.00121669   -0.00452185
     atom   20 type  1   force =    -0.00083408    0.00122136   -0.00452111
     atom   21 type  1   force =    -0.00250009   -0.00000387   -0.00391401
     atom   22 type  1   force =    -0.00176223   -0.00045522   -0.00738547
     atom   23 type  1   force =    -0.00083383    0.00000413   -0.00838815
     atom   24 type  1   force =    -0.00176220    0.00045100   -0.00738541
     atom   25 type  1   force =     0.00326943    0.00014132   -0.01738272
     atom   26 type  1   force =     0.00326962   -0.00013723   -0.01738240
     atom   27 type  1   force =     0.00358759   -0.00000478   -0.01516621
     atom   28 type  1   force =     0.00105168    0.00011820   -0.01024066
     atom   29 type  1   force =     0.00143559    0.00000328   -0.00963429
     atom   30 type  1   force =     0.00105214   -0.00012241   -0.01023911
     atom   31 type  1   force =    -0.00766937   -0.00000238    0.01206984
     atom   32 type  1   force =    -0.00767008    0.00000517    0.01207116
     atom   33 type  1   force =    -0.00805362   -0.00000313    0.01261127
     atom   34 type  1   force =     0.00346753   -0.00028439    0.02609774
     atom   35 type  1   force =     0.00390899    0.00000253    0.02747181
     atom   36 type  1   force =     0.00346648    0.00028213    0.02609966
     atom   37 type  2   force =     0.01002409    0.00000072    0.16006599

     Total force =     0.235105     Total SCF correction =     0.002995
 !ASE

     Writing output data file calc.save
     Check: negative starting charge=(component1):   -0.006001
     NEW-OLD atomic charge density approx. for the potential

     Check: negative/imaginary core charge=   -0.000002    0.000000
     Check: negative starting charge=(component1):   -0.006294

[...]

     iteration #  1     ecut=    44.10 Ry     beta=0.10
     Davidson diagonalization with overlap
     c_bands:  1 eigenvalues not converged
     ethr =  2.24E-10,  avg # of iterations = 10.9

[...]

     Writing output data file calc.save
     Check: negative starting charge=(component1):   -0.006650
     NEW-OLD atomic charge density approx. for the potential

     Check: negative/imaginary core charge=   -0.000002    0.000000
     Check: negative starting charge=(component1):   -0.006630

[...]

     Self-consistent Calculation

[...]

     total energy              =   -2918.91269375 Ry
     Harris-Foulkes estimate   =   -2918.91261295 Ry
     estimated scf accuracy    <       0.00000151 Ry

[...]

     iteration # 19     ecut=    44.10 Ry     beta=0.10
     Davidson diagonalization with overlap
     ethr =  3.41E-10,  avg # of iterations =  1.5

     negative rho (up, down):  6.705E-03 1.883E-02

[...]

     Adding external electric field

     Computed dipole along edir(3) :
        Dipole               -0.0637 Ry au,         -0.1620 Debye
        Dipole field         -0.0001 Ry au

        Potential amp.        0.0093 Ry
        Total length         73.7482 bohr

     Magnetic moment per site:
     atom:    1    charge:    3.0243    magn:    0.9588    constr:    0.0000
     atom:    2    charge:    3.0244    magn:    0.9588    constr:    0.0000
     atom:    3    charge:    2.9823    magn:    0.9259    constr:    0.0000
     atom:    4    charge:    3.0874    magn:    0.9489    constr:    0.0000
     atom:    5    charge:    3.1285    magn:    0.9317    constr:    0.0000
     atom:    6    charge:    3.0874    magn:    0.9489    constr:    0.0000
     atom:    7    charge:    3.1105    magn:    0.9089    constr:    0.0000
     atom:    8    charge:    3.1103    magn:    0.9088    constr:    0.0000
     atom:    9    charge:    3.1838    magn:    0.9656    constr:    0.0000
     atom:   10    charge:    3.1872    magn:    0.9481    constr:    0.0000
     atom:   11    charge:    3.1803    magn:    0.9425    constr:    0.0000
     atom:   12    charge:    3.1872    magn:    0.9480    constr:    0.0000
     atom:   13    charge:    3.1907    magn:    0.9692    constr:    0.0000
     atom:   14    charge:    3.1907    magn:    0.9692    constr:    0.0000
     atom:   15    charge:    3.1885    magn:    0.9424    constr:    0.0000
     atom:   16    charge:    3.1954    magn:    0.9387    constr:    0.0000
     atom:   17    charge:    3.1775    magn:    0.9665    constr:    0.0000
     atom:   18    charge:    3.1955    magn:    0.9387    constr:    0.0000
     atom:   19    charge:    3.1990    magn:    0.9444    constr:    0.0000
     atom:   20    charge:    3.1990    magn:    0.9444    constr:    0.0000
     atom:   21    charge:    3.1986    magn:    0.9434    constr:    0.0000
     atom:   22    charge:    3.1996    magn:    0.9534    constr:    0.0000
     atom:   23    charge:    3.2003    magn:    0.9599    constr:    0.0000
     atom:   24    charge:    3.1996    magn:    0.9534    constr:    0.0000
     atom:   25    charge:    3.1994    magn:    0.9515    constr:    0.0000
     atom:   26    charge:    3.1994    magn:    0.9515    constr:    0.0000
     atom:   27    charge:    3.1988    magn:    0.9470    constr:    0.0000
     atom:   28    charge:    3.2028    magn:    0.9770    constr:    0.0000
     atom:   29    charge:    3.2028    magn:    0.9728    constr:    0.0000
     atom:   30    charge:    3.2028    magn:    0.9770    constr:    0.0000
     atom:   31    charge:    3.2083    magn:    0.9895    constr:    0.0000
     atom:   32    charge:    3.2083    magn:    0.9895    constr:    0.0000
     atom:   33    charge:    3.2081    magn:    0.9895    constr:    0.0000
     atom:   34    charge:    3.2202    magn:    1.0032    constr:    0.0000
     atom:   35    charge:    3.2204    magn:    1.0039    constr:    0.0000
     atom:   36    charge:    3.2202    magn:    1.0032    constr:    0.0000
     atom:   37    charge:    1.4137    magn:    0.0555    constr:    0.0000

     End of self-consistent calculation

 ------ SPIN UP ------------

[...]

 ------ SPIN DOWN ----------

[...]

          k = 0.0538-0.0440 0.0000 ( 62686 PWs)   bands (ev):

   -19.0968  -8.2353  -7.3894  -7.1839  -6.8897  -6.4665  -6.2218  -6.1366
    -5.7283  -5.4958  -5.4019  -5.1261  -5.0238  -4.7787  -4.6156  -4.5085
    -4.4245  -4.3610  -4.3312  -4.2236  -4.1669  -4.0655  -3.9300  -3.8712
    -3.8030  -3.7759  -3.6974  -3.6777  -3.5772  -3.5431  -3.5101  -3.4928
    -3.4448  -3.4136  -3.3425  -3.3090  -3.2812  -3.2609  -3.1489  -3.0792
    -3.0360  -3.0173  -2.9938  -2.9627  -2.9564  -2.8910  -2.8664  -2.8238
    -2.7778  -2.7623  -2.7363  -2.7012  -2.6697  -2.6506  -2.5853  -2.5300
    -2.5148  -2.4684  -2.4190  -2.3770  -2.3626  -2.3415  -2.2979  -2.2667
    -2.2224  -2.2083  -2.1827  -2.1404  -2.1165  -2.0918  -2.0778  -2.0434
    -2.0151  -1.9799  -1.9609  -1.8976  -1.8887  -1.8643  -1.8377  -1.8155
    -1.7985  -1.7687  -1.7400  -1.7194  -1.6923  -1.6673  -1.6435  -1.6339
    -1.5937  -1.5777  -1.5641  -1.5443  -1.4975  -1.4762  -1.4337  -1.4270
    -1.4100  -1.3821  -1.3659  -1.3334  -1.3226  -1.3132  -1.2902  -1.2763
    -1.2514  -1.2385  -1.2048  -1.1923  -1.1660  -1.1540  -1.1416  -1.1118
    -1.0795  -1.0629  -1.0219  -1.0037  -0.9861  -0.9388  -0.9123  -0.8938
    -0.8755  -0.8702  -0.8276  -0.8194  -0.7992  -0.7659  -0.7306  -0.7187
    -0.7093  -0.6788  -0.6206  -0.5754  -0.5381  -0.5046  -0.4895  -0.4622
    -0.4521  -0.4019  -0.3805  -0.3332  -0.3293  -0.3144  -0.3045  -0.2810
    -0.2605  -0.2385  -0.1995  -0.1954  -0.1666  -0.1428  -0.1341  -0.1178
    -0.0881  -0.0640  -0.0520  -0.0200  -0.0005   0.0177   0.0304   0.0544
     0.0710   0.0900   0.1162   0.1357   0.1632   0.1932   0.2091   0.2222
     0.2461   0.2545   0.2790   0.2967   0.3182   0.3553   0.3858   0.4111
     0.4187   0.4329   0.4459   0.4622   0.4729   0.4798   0.4893   0.5031
     0.5285   0.5425   0.5561   0.5689   0.5768   0.5957   0.6087   0.6232
     0.6464   0.6885   0.7639   0.8256   0.8810   1.0445   1.1613   1.2732
     1.3314   1.4548   1.5510   1.5602   1.6491   1.8299   2.2327   2.2833
     2.5857   2.7011   2.7679   2.8783   3.0024   3.0794   3.4236   3.5171
     3.6225   3.8293   3.9158   4.0504   4.0930   4.1397   4.3522   4.5043
     4.5788   4.6839   4.7778   4.8418   4.9819   5.0093   5.0502   5.1290
     5.2076   5.3611   5.3847   5.4022   5.4919   5.5555   5.6248   5.6835
     5.7599   5.8266   5.9273   6.0531   6.0809   6.1726   6.2499   6.2794
     6.3096   6.4390   6.4941   6.5386   6.5783   6.7083   6.7598   6.8120
     6.9662   6.9779   6.9987   7.0765   7.1307   7.1784   7.2999   7.3925
     7.4612

     the Fermi energy is    -0.5136 ev

!    total energy              =   -2918.91329853 Ry
     Harris-Foulkes estimate   =   -2918.91269337 Ry
     estimated scf accuracy    <       0.00000059 Ry

     The total energy is the sum of the following terms:

     one-electron contribution =  -62488.33495173 Ry
     hartree contribution      =   31544.83136984 Ry
     xc contribution           =   -1336.32602141 Ry
     ewald contribution        =   29361.02419850 Ry
     electric field correction =       0.00000402 Ry
     smearing contrib. (-TS)   =      -0.10789775 Ry

     total magnetization       =    62.69 Bohr mag/cell
     absolute magnetization    =    69.07 Bohr mag/cell

     convergence has been achieved in  19 iterations

     Forces acting on atoms (Ry/au):

     negative rho (up, down):  6.705E-03 1.883E-02
     atom    1 type  1   force =     0.00093713   -0.00004479   -0.00037793
     atom    2 type  1   force =     0.00093891    0.00000601   -0.00035588
     atom    3 type  1   force =    -0.00067215    0.00004204   -0.00037241
     atom    4 type  1   force =    -0.00018974    0.00004423   -0.00041566
     atom    5 type  1   force =     0.00095485   -0.00003092   -0.00039433
     atom    6 type  1   force =    -0.00018381   -0.00000904   -0.00039924
     atom    7 type  1   force =     0.00031227    0.00001722   -0.00013466
     atom    8 type  1   force =     0.00031331   -0.00003552   -0.00014467
     atom    9 type  1   force =    -0.00008979    0.00003900    0.00110094
     atom   10 type  1   force =     0.00024648   -0.00025373   -0.00042925
     atom   11 type  1   force =     0.00068965   -0.00004051   -0.00160061
     atom   12 type  1   force =     0.00024433    0.00028600   -0.00043238
     atom   13 type  1   force =    -0.00039914   -0.00031879   -0.00031044
     atom   14 type  1   force =    -0.00040988    0.00027371   -0.00032242
     atom   15 type  1   force =    -0.00011441    0.00004360   -0.00028638
     atom   16 type  1   force =     0.00000146    0.00037711    0.00073733
     atom   17 type  1   force =     0.00000611   -0.00003926    0.00035986
     atom   18 type  1   force =     0.00000816   -0.00033849    0.00073374
     atom   19 type  1   force =    -0.00091500    0.00011296   -0.00619127
     atom   20 type  1   force =    -0.00092395   -0.00012768   -0.00620803
     atom   21 type  1   force =     0.00126283    0.00001520   -0.00929379
     atom   22 type  1   force =    -0.00055723    0.00178938   -0.00859951
     atom   23 type  1   force =    -0.00263417   -0.00001336   -0.00574029
     atom   24 type  1   force =    -0.00055887   -0.00177647   -0.00860778
     atom   25 type  1   force =     0.00321031    0.00181474   -0.01473945
     atom   26 type  1   force =     0.00321111   -0.00182716   -0.01475315
     atom   27 type  1   force =     0.00411880    0.00001017   -0.01552156
     atom   28 type  1   force =     0.00128047    0.00028259   -0.00991265
     atom   29 type  1   force =     0.00108852   -0.00000965   -0.00877657
     atom   30 type  1   force =     0.00127628   -0.00027117   -0.00991850
     atom   31 type  1   force =    -0.00770479    0.00050688    0.01282392
     atom   32 type  1   force =    -0.00771087   -0.00051609    0.01282113
     atom   33 type  1   force =    -0.00823886    0.00001058    0.01293256
     atom   34 type  1   force =     0.00313343   -0.00016017    0.02677184
     atom   35 type  1   force =     0.00359911   -0.00001104    0.02777759
     atom   36 type  1   force =     0.00313702    0.00016981    0.02676770
     atom   37 type  2   force =     0.00133210   -0.00001738    0.00141220

     Total force =     0.065543     Total SCF correction =     0.002284
 !ASE

     Writing output data file calc.save

     General routines

     Parallel routines

   This run was terminated on:  23:21:26  20Apr2018

   JOB DONE.