     Program PWSCF v.5.1rc2 (svn rev. ) starts on 23Mar2018 at  9: 3:20

     Current dimensions of program PWSCF are:
     Max number of different atomic species (ntypx) = 10
     Max number of k-points (npk) =  40000
     Max angular momentum in pseudopotentials (lmaxx) =  3
     Presently no symmetry can be used with electric field

     IMPORTANT: XC functional enforced from input :
     Exchange-correlation      = RPBE ( 1  4 28  4 0)
     Any further DFT definition will be discarded
     Please, verify this is what you really want

               file Ni.UPF: wavefunction(s)  3D renormalized

     Subspace diagonalization in iterative solution of the eigenvalue problem:
     a serial algorithm will be used

     Generating pointlists ...
     new r_m :   0.4125 (alat units)  0.7795 (a.u.) for type    1
     new r_m :   0.4125 (alat units)  0.7795 (a.u.) for type    2

     bravais-lattice index     =            0
     lattice parameter (alat)  =       1.8897  a.u.
     unit-cell volume          =   12553.3819 (a.u.)^3
     number of atoms/cell      =           37
     number of atomic types    =            2
     number of electrons       =       366.00
     number of Kohn-Sham states=          283
     kinetic-energy cutoff     =      44.0992  Ry
     charge density cutoff     =     440.9919  Ry
     convergence threshold     =      7.3E-07
     mixing beta               =       0.1000
     number of iterations used =           10  plain     mixing
     Exchange-correlation      = RPBE ( 1  4 28  4 0)
     nstep                     =           50

     celldm(1)=   1.889726  celldm(2)=   0.000000  celldm(3)=   0.000000
     celldm(4)=   0.000000  celldm(5)=   0.000000  celldm(6)=   0.000000

     crystal axes: (cart. coord. in units of alat)
               a(1) = (   6.162925   0.000000   0.000000 )
               a(2) = (   0.000000   7.548011   0.000000 )
               a(3) = (   0.000000   0.000000  39.989385 )

     reciprocal axes: (cart. coord. in units 2 pi/alat)
               b(1) = (  0.162261  0.000000  0.000000 )
               b(2) = (  0.000000  0.132485  0.000000 )
               b(3) = (  0.000000  0.000000  0.025007 )

     PseudoPot. # 1 for Ni read from file:
     /home/alatimer/bin/psp/esp_psp_w_gbrvRu/Ni.UPF
     MD5 check sum: 8b2449ee0060d9c33484ccd47bb60870
     Pseudo is Ultrasoft + core correction, Zval = 10.0
     Generated using "atomic" code by A. Dal Corso  v.5.0.2 svn rev. 9415
     Using radial grid of 1195 points,  6 beta functions with:
                l(1) =   0
                l(2) =   0
                l(3) =   1
                l(4) =   1
                l(5) =   2
                l(6) =   2
     Q(r) pseudized with 0 coefficients

     PseudoPot. # 2 for  O read from file:
     /home/alatimer/bin/psp/esp_psp_w_gbrvRu/O.UPF
     MD5 check sum: e057bbcf3229fb5d8c36c0c92f9568b4
     Pseudo is Ultrasoft + core correction, Zval =  6.0
     Generated using "atomic" code by A. Dal Corso  v.5.0.2 svn rev. 9415
     Using radial grid of 1095 points,  4 beta functions with:
                l(1) =   0
                l(2) =   0
                l(3) =   1
                l(4) =   1
     Q(r) pseudized with 0 coefficients

     atomic species   valence    mass     pseudopotential
        Ni1           10.00    58.69340     Ni( 1.00)
        O1             6.00    15.99940      O( 1.00)

     Starting magnetic structure
     atomic species   magnetization
        Ni1          0.300
        O1           0.500

     No symmetry found

   Cartesian axes

     site n.     atom                  positions (alat units)
         1           Ni1 tau(   1) = (   0.0000000   1.2580018  23.9893847  )
         2           Ni1 tau(   2) = (   0.0000000   3.7740055  23.9893847  )
         3           Ni1 tau(   3) = (   0.0000000   6.2900092  23.9893847  )
         4           Ni1 tau(   4) = (   4.1086168   0.0000000  23.2630770  )
         5           Ni1 tau(   5) = (   4.1086168   2.5160037  23.2630770  )
         6           Ni1 tau(   6) = (   4.1086168   5.0320073  23.2630770  )
         7           Ni1 tau(   7) = (   2.0543084   1.2580018  22.5367693  )
         8           Ni1 tau(   8) = (   2.0543084   3.7740055  22.5367693  )
         9           Ni1 tau(   9) = (   2.0543084   6.2900092  22.5367693  )
        10           Ni1 tau(  10) = (   0.0000000   0.0000000  21.8104616  )
        11           Ni1 tau(  11) = (   0.0000000   2.5160037  21.8104616  )
        12           Ni1 tau(  12) = (   0.0000000   5.0320073  21.8104616  )
        13           Ni1 tau(  13) = (   4.1086168   1.2580018  21.0841539  )
        14           Ni1 tau(  14) = (   4.1086168   3.7740055  21.0841539  )
        15           Ni1 tau(  15) = (   4.1086168   6.2900092  21.0841539  )
        16           Ni1 tau(  16) = (   2.0543084   0.0000000  20.3578462  )
        17           Ni1 tau(  17) = (   2.0543084   2.5160037  20.3578462  )
        18           Ni1 tau(  18) = (   2.0543084   5.0320073  20.3578462  )
        19           Ni1 tau(  19) = (   0.0000000   1.2580018  19.6315385  )
        20           Ni1 tau(  20) = (   0.0000000   3.7740055  19.6315385  )
        21           Ni1 tau(  21) = (   0.0000000   6.2900092  19.6315385  )
        22           Ni1 tau(  22) = (   4.1086168   0.0000000  18.9052308  )
        23           Ni1 tau(  23) = (   4.1086168   2.5160037  18.9052308  )
        24           Ni1 tau(  24) = (   4.1086168   5.0320073  18.9052308  )
        25           Ni1 tau(  25) = (   2.0543084   1.2580018  18.1789231  )
        26           Ni1 tau(  26) = (   2.0543084   3.7740055  18.1789231  )
        27           Ni1 tau(  27) = (   2.0543084   6.2900092  18.1789231  )
        28           Ni1 tau(  28) = (   0.0000000   0.0000000  17.4526154  )
        29           Ni1 tau(  29) = (   0.0000000   2.5160037  17.4526154  )
        30           Ni1 tau(  30) = (   0.0000000   5.0320073  17.4526154  )
        31           Ni1 tau(  31) = (   4.1086168   1.2580018  16.7263077  )
        32           Ni1 tau(  32) = (   4.1086168   3.7740055  16.7263077  )
        33           Ni1 tau(  33) = (   4.1086168   6.2900092  16.7263077  )
        34           Ni1 tau(  34) = (   2.0543084   0.0000000  16.0000000  )
        35           Ni1 tau(  35) = (   2.0543084   2.5160037  16.0000000  )
        36           Ni1 tau(  36) = (   2.0543084   5.0320073  16.0000000  )
        37           O1  tau(  37) = (   0.0000000   2.5160037  25.0893847  )

     number of k points=    10  Fermi-Dirac smearing, width (Ry)=  0.0073
                       cart. coord. in units 2pi/alat
        k(    1) = (   0.0000000   0.0000000   0.0000000), wk =   0.1111111
        k(    2) = (   0.0000000   0.0441617   0.0000000), wk =   0.2222222
        k(    3) = (   0.0540869   0.0000000   0.0000000), wk =   0.2222222
        k(    4) = (   0.0540869   0.0441617   0.0000000), wk =   0.2222222
        k(    5) = (   0.0540869  -0.0441617   0.0000000), wk =   0.2222222
        k(    6) = (   0.0000000   0.0000000   0.0000000), wk =   0.1111111
        k(    7) = (   0.0000000   0.0441617   0.0000000), wk =   0.2222222
        k(    8) = (   0.0540869   0.0000000   0.0000000), wk =   0.2222222
        k(    9) = (   0.0540869   0.0441617   0.0000000), wk =   0.2222222
        k(   10) = (   0.0540869  -0.0441617   0.0000000), wk =   0.2222222

     Largest allocated arrays     est. size (Mb)     dimensions
     Largest temporary arrays     est. size (Mb)     dimensions

     Check: negative/imaginary core charge=   -0.000002    0.000000

     Initial potential from superposition of free atoms
     Check: negative starting charge=(component1):   -0.000985
     Check: negative starting charge=(component2):   -0.000519

     starting charge  365.99096, renormalised to  366.00000

     negative rho (up, down):  9.852E-04 5.190E-04

     Adding external electric field

     Computed dipole along edir(3) :
        Dipole               -0.0014 Ry au,         -0.0036 Debye
        Dipole field         -0.0000 Ry au

        Potential amp.        0.0002 Ry
        Total length         73.6798 bohr

[...]

     Starting wfc are  328 randomized atomic wfcs

     Self-consistent Calculation

     iteration #  1     ecut=    44.10 Ry     beta=0.10
     Davidson diagonalization with overlap
  python dir          : /home/vossj/suncat/lib/python2.7/site-packages/espresso
  espresso dir        : /home/vossj/suncat/esdld/espresso-dynpy-beef/bin
  pseudo dir          : /home/alatimer/bin/psp/esp_psp_w_gbrvRu/
  ase-espresso py git : ffa2778-git

     Program PWSCF v.5.1rc2 (svn rev. ) starts on 23Mar2018 at  9: 9:41

[...]

     iteration #  1     ecut=    44.10 Ry     beta=0.10
     Davidson diagonalization with overlap
     ethr =  1.00E-02,  avg # of iterations =  8.5

[...]

     Magnetic moment per site:
     atom:    1    charge:    3.9348    magn:    1.1498    constr:    0.0000
     atom:    2    charge:    3.9348    magn:    1.1498    constr:    0.0000
     atom:    3    charge:    3.9311    magn:    1.1515    constr:    0.0000
     atom:    4    charge:    3.9521    magn:    1.1282    constr:    0.0000
     atom:    5    charge:    3.9534    magn:    1.1276    constr:    0.0000
     atom:    6    charge:    3.9521    magn:    1.1282    constr:    0.0000
     atom:    7    charge:    3.9647    magn:    1.1153    constr:    0.0000
     atom:    8    charge:    3.9647    magn:    1.1153    constr:    0.0000
     atom:    9    charge:    3.9627    magn:    1.1170    constr:    0.0000
     atom:   10    charge:    3.9725    magn:    1.1095    constr:    0.0000
     atom:   11    charge:    3.9723    magn:    1.1112    constr:    0.0000
     atom:   12    charge:    3.9725    magn:    1.1095    constr:    0.0000
     atom:   13    charge:    3.9727    magn:    1.1086    constr:    0.0000
     atom:   14    charge:    3.9727    magn:    1.1086    constr:    0.0000
     atom:   15    charge:    3.9729    magn:    1.1087    constr:    0.0000
     atom:   16    charge:    3.9742    magn:    1.1073    constr:    0.0000
     atom:   17    charge:    3.9742    magn:    1.1070    constr:    0.0000
     atom:   18    charge:    3.9742    magn:    1.1073    constr:    0.0000
     atom:   19    charge:    3.9735    magn:    1.1073    constr:    0.0000
     atom:   20    charge:    3.9735    magn:    1.1073    constr:    0.0000
     atom:   21    charge:    3.9738    magn:    1.1064    constr:    0.0000
     atom:   22    charge:    3.9728    magn:    1.1087    constr:    0.0000
     atom:   23    charge:    3.9726    magn:    1.1087    constr:    0.0000
     atom:   24    charge:    3.9728    magn:    1.1087    constr:    0.0000
     atom:   25    charge:    3.9686    magn:    1.1115    constr:    0.0000
     atom:   26    charge:    3.9686    magn:    1.1115    constr:    0.0000
     atom:   27    charge:    3.9687    magn:    1.1115    constr:    0.0000
     atom:   28    charge:    3.9609    magn:    1.1161    constr:    0.0000
     atom:   29    charge:    3.9612    magn:    1.1158    constr:    0.0000
     atom:   30    charge:    3.9609    magn:    1.1161    constr:    0.0000
[...]
    -3.3897  -3.3136  -3.3061  -3.3004  -3.2627  -3.2596  -3.2558  -3.2018
    -3.1555  -3.1322  -3.1223  -3.1155  -3.0947  -3.0896  -3.0853  -3.0848
    -3.0681  -3.0543  -3.0424  -3.0342  -3.0042  -2.9918  -2.9377  -2.9205
    -2.9143  -2.9014  -2.8872  -2.8823  -2.8767  -2.8731  -2.8605  -2.8397
    -2.8347  -2.8291  -2.8128  -2.8032  -2.7528  -2.7425  -2.7137  -2.6983
    -2.6506  -2.6503  -2.6343  -2.6027  -2.5898  -2.5436  -2.5393  -2.4952
    -2.4911  -2.4673  -2.4649  -2.4544  -2.4371  -2.4054  -2.3431  -2.3367
    -2.3330  -2.2843  -2.2825  -2.2638  -2.2200  -2.2161  -2.2142  -2.1993
    -2.1776  -2.1287  -2.0905  -2.0754  -2.0675  -2.0672  -2.0231  -2.0099
    -1.9934  -1.9712  -1.9670  -1.9513  -1.9336  -1.9291  -1.9139  -1.9109
    -1.9004  -1.8992  -1.8899  -1.8886  -1.8739  -1.8626  -1.8436  -1.8418
    -1.8227  -1.8111  -1.8040  -1.7599  -1.7541  -1.7358  -1.7348  -1.6972
    -1.6561  -1.6410  -1.6341  -1.6298  -1.6279  -1.6173  -1.6165  -1.5814
    -1.5813  -1.5750  -1.5719  -1.5583  -1.5257  -1.5238  -1.5158  -1.5131
    -1.5085  -1.4958  -1.4851  -1.4840  -1.4013  -1.3991  -1.3614  -1.3243
    -1.2046  -1.0366  -0.9509  -0.7431  -0.5683  -0.2812   0.0406   0.1984
     0.2828   0.2836   0.2911   0.3527   0.4312   0.8303   0.8419   0.9451
     1.0289   1.1220   1.4263   1.5350   1.8738   2.1683   2.3252   2.4716
     2.5776   2.6225   2.8238   2.9867   3.1822   3.4568   3.5219   3.7307
     3.7434   3.9774   4.1537   4.3775   4.5242   4.6185   4.7527   4.7684
     4.9637   5.0710   5.0905   5.3595   5.6402   5.7411   5.7581   5.8643
     5.8801   6.0769   6.1021   6.1306   6.1972   6.2507   6.3156   6.4157
     6.5168   6.5686   6.6951   6.7341   6.7674   6.8396   6.9452   7.0622
     7.0880   7.1418   7.2289   7.2305   7.3027   7.3077   7.4573   7.5399
     7.5775   7.5947   7.6088   7.6112   7.6922   7.7434   7.7973   8.0432
     8.0737   8.1565   8.1990   8.2348   8.3690   8.5004   8.5214   8.6436
     8.6542   8.7010   8.7325

[...]

 ------ SPIN DOWN ----------

[...]

     the Fermi energy is    -0.8969 ev

!    total energy              =   -3656.51904023 Ry
     Harris-Foulkes estimate   =   -3656.51903875 Ry
     estimated scf accuracy    <       0.00000061 Ry

     The total energy is the sum of the following terms:

     one-electron contribution =  -77415.59338789 Ry
     hartree contribution      =   39068.33529878 Ry
     xc contribution           =   -1514.24043251 Ry
     ewald contribution        =   36205.14102434 Ry
     electric field correction =       0.00012154 Ry
     smearing contrib. (-TS)   =      -0.16166448 Ry

[...]

     convergence has been achieved in  68 iterations

     Forces acting on atoms (Ry/au):

     negative rho (up, down):  7.854E-04 6.446E-04
     atom    1 type  1   force =     0.00069751   -0.07092419   -0.05005972
     atom    2 type  1   force =     0.00069768    0.07092188   -0.05005705
     atom    3 type  1   force =    -0.00477268    0.00000376   -0.02484535
     atom    4 type  1   force =     0.00498676   -0.00430920   -0.00747285
     atom    5 type  1   force =    -0.01651839   -0.00000528   -0.01514895
     atom    6 type  1   force =     0.00498643    0.00431532   -0.00747033
     atom    7 type  1   force =     0.00444524   -0.00276269    0.00437727
     atom    8 type  1   force =     0.00444506    0.00275731    0.00438018
     atom    9 type  1   force =     0.00092839    0.00000554    0.00919539
     atom   10 type  1   force =     0.00263275   -0.00208155    0.01066390
     atom   11 type  1   force =     0.00407686   -0.00000599   -0.00924515
     atom   12 type  1   force =     0.00263328    0.00208781    0.01066470
     atom   13 type  1   force =    -0.00371733    0.00073645    0.00247068
     atom   14 type  1   force =    -0.00371752   -0.00074339    0.00247084
     atom   15 type  1   force =    -0.00333431    0.00000621    0.00169765
     atom   16 type  1   force =    -0.00175201   -0.00002888   -0.00034882
     atom   17 type  1   force =    -0.00121539   -0.00000627    0.00046420
     atom   18 type  1   force =    -0.00175164    0.00003437   -0.00034920
     atom   19 type  1   force =     0.00069708   -0.00085823    0.00116784
     atom   20 type  1   force =     0.00069752    0.00085142    0.00116868
     atom   21 type  1   force =     0.00060099    0.00000655   -0.00495218
     atom   22 type  1   force =     0.00447482   -0.00026624   -0.00009611
     atom   23 type  1   force =     0.00385492   -0.00000653   -0.00092442
     atom   24 type  1   force =     0.00447506    0.00027249   -0.00009696
     atom   25 type  1   force =    -0.00248007    0.00036934   -0.01134200
     atom   26 type  1   force =    -0.00248001   -0.00037506   -0.01134270
     atom   27 type  1   force =    -0.00257762    0.00000571   -0.01055343
     atom   28 type  1   force =    -0.00187721    0.00038394   -0.00994112
     atom   29 type  1   force =    -0.00203286   -0.00000546   -0.01012608
     atom   30 type  1   force =    -0.00187795   -0.00037846   -0.00994294
     atom   31 type  1   force =    -0.00539498   -0.00001080    0.00340665
     atom   32 type  1   force =    -0.00539381    0.00000557    0.00340501
     atom   33 type  1   force =    -0.00570932    0.00000481    0.00295271
     atom   34 type  1   force =     0.00616681    0.00013606    0.02129792
     atom   35 type  1   force =     0.00605073   -0.00000450    0.02116489
     atom   36 type  1   force =     0.00616607   -0.00013151    0.02129525
     atom   37 type  2   force =     0.00288915   -0.00000032    0.11207164

     Total force =     0.178751     Total SCF correction =     0.002135
 !ASE

     Writing output data file calc.save
     Check: negative starting charge=(component1):   -0.001502
     NEW-OLD atomic charge density approx. for the potential

     Check: negative/imaginary core charge=   -0.000002    0.000000
     Check: negative starting charge=(component1):   -0.001524

[...]

     iteration #  9     ecut=    44.10 Ry     beta=0.10
     Davidson diagonalization with overlap
     c_bands:  1 eigenvalues not converged
     c_bands:  1 eigenvalues not converged
     ethr =  1.78E-06,  avg # of iterations = 11.2

[...]

     Writing output data file calc.save
     Check: negative starting charge=(component1):   -0.001529
     NEW-OLD atomic charge density approx. for the potential

     Check: negative/imaginary core charge=   -0.000002    0.000000
     Check: negative starting charge=(component1):   -0.001529

[...]

     Self-consistent Calculation

[...]

     total energy              =   -3656.53864550 Ry
     Harris-Foulkes estimate   =   -3656.53864522 Ry
     estimated scf accuracy    <       0.00000091 Ry

[...]

     iteration # 20     ecut=    44.10 Ry     beta=0.10
     Davidson diagonalization with overlap
     ethr =  2.48E-10,  avg # of iterations =  1.0

     negative rho (up, down):  8.037E-04 6.553E-04

[...]

     Adding external electric field

     Computed dipole along edir(3) :
        Dipole               -0.4704 Ry au,         -1.1957 Debye
        Dipole field         -0.0005 Ry au

        Potential amp.        0.0694 Ry
        Total length         73.6798 bohr

     Magnetic moment per site:
     atom:    1    charge:    3.9570    magn:    0.3376    constr:    0.0000
     atom:    2    charge:    3.9572    magn:    0.3375    constr:    0.0000
     atom:    3    charge:    3.8099    magn:    0.4076    constr:    0.0000
     atom:    4    charge:    3.9405    magn:    0.4231    constr:    0.0000
     atom:    5    charge:    3.9114    magn:    0.4354    constr:    0.0000
     atom:    6    charge:    3.9405    magn:    0.4231    constr:    0.0000
     atom:    7    charge:    3.9596    magn:    0.3978    constr:    0.0000
     atom:    8    charge:    3.9596    magn:    0.3978    constr:    0.0000
     atom:    9    charge:    3.9381    magn:    0.3913    constr:    0.0000
     atom:   10    charge:    3.9645    magn:    0.3606    constr:    0.0000
     atom:   11    charge:    3.9656    magn:    0.4000    constr:    0.0000
     atom:   12    charge:    3.9645    magn:    0.3606    constr:    0.0000
     atom:   13    charge:    3.9669    magn:    0.3912    constr:    0.0000
     atom:   14    charge:    3.9669    magn:    0.3913    constr:    0.0000
     atom:   15    charge:    3.9654    magn:    0.3915    constr:    0.0000
     atom:   16    charge:    3.9678    magn:    0.3929    constr:    0.0000
     atom:   17    charge:    3.9685    magn:    0.3991    constr:    0.0000
     atom:   18    charge:    3.9678    magn:    0.3929    constr:    0.0000
     atom:   19    charge:    3.9680    magn:    0.3830    constr:    0.0000
     atom:   20    charge:    3.9680    magn:    0.3830    constr:    0.0000
     atom:   21    charge:    3.9686    magn:    0.3812    constr:    0.0000
     atom:   22    charge:    3.9696    magn:    0.3873    constr:    0.0000
     atom:   23    charge:    3.9697    magn:    0.3893    constr:    0.0000
     atom:   24    charge:    3.9696    magn:    0.3873    constr:    0.0000
     atom:   25    charge:    3.9685    magn:    0.3929    constr:    0.0000
     atom:   26    charge:    3.9685    magn:    0.3929    constr:    0.0000
     atom:   27    charge:    3.9684    magn:    0.3846    constr:    0.0000
     atom:   28    charge:    3.9688    magn:    0.4041    constr:    0.0000
     atom:   29    charge:    3.9689    magn:    0.3987    constr:    0.0000
     atom:   30    charge:    3.9688    magn:    0.4041    constr:    0.0000
     atom:   31    charge:    3.9747    magn:    0.4163    constr:    0.0000
     atom:   32    charge:    3.9746    magn:    0.4163    constr:    0.0000
     atom:   33    charge:    3.9746    magn:    0.4163    constr:    0.0000
     atom:   34    charge:    3.9839    magn:    0.4244    constr:    0.0000
     atom:   35    charge:    3.9839    magn:    0.4256    constr:    0.0000
     atom:   36    charge:    3.9839    magn:    0.4244    constr:    0.0000
     atom:   37    charge:    1.9680    magn:    0.1023    constr:    0.0000

     End of self-consistent calculation

 ------ SPIN UP ------------

[...]

 ------ SPIN DOWN ----------

[...]

          k = 0.0541-0.0442 0.0000 ( 62079 PWs)   bands (ev):

   -19.0499  -8.7300  -7.8799  -7.5955  -7.3967  -6.8499  -6.6463  -6.4665
    -6.0238  -5.9295  -5.6602  -5.4946  -5.3849  -5.2404  -5.1449  -5.0514
    -4.9744  -4.9251  -4.9120  -4.8314  -4.8102  -4.7076  -4.6553  -4.5223
    -4.4997  -4.4176  -4.4035  -4.3777  -4.2791  -4.2429  -4.2074  -4.1976
    -4.1726  -4.1377  -4.0910  -4.0609  -4.0414  -3.9995  -3.8727  -3.8360
    -3.8038  -3.7775  -3.7582  -3.7343  -3.7102  -3.6560  -3.6266  -3.5993
    -3.5775  -3.5644  -3.5133  -3.4693  -3.4347  -3.4131  -3.3730  -3.3494
    -3.3374  -3.2954  -3.2497  -3.2234  -3.2047  -3.1891  -3.1399  -3.1081
    -3.0593  -3.0257  -3.0011  -2.9906  -2.9708  -2.9463  -2.9315  -2.9235
    -2.8915  -2.8573  -2.8332  -2.8192  -2.7932  -2.7630  -2.7446  -2.7247
    -2.7035  -2.6848  -2.6797  -2.6739  -2.6497  -2.6348  -2.6213  -2.5935
    -2.5713  -2.5466  -2.5372  -2.5247  -2.4891  -2.4701  -2.4646  -2.4421
    -2.4200  -2.4040  -2.3792  -2.3546  -2.3405  -2.3209  -2.3050  -2.2924
    -2.2780  -2.2438  -2.2231  -2.2081  -2.1979  -2.1750  -2.1519  -2.1133
    -2.0964  -2.0820  -2.0660  -2.0558  -2.0396  -2.0208  -1.9897  -1.9708
    -1.9449  -1.9233  -1.9145  -1.8940  -1.8682  -1.8582  -1.8448  -1.8057
    -1.7867  -1.7757  -1.7600  -1.7539  -1.7311  -1.6845  -1.6691  -1.6472
    -1.6288  -1.6173  -1.5715  -1.5641  -1.5368  -1.5106  -1.4919  -1.4797
    -1.4729  -1.4366  -1.4284  -1.4052  -1.3911  -1.3826  -1.3686  -1.3422
    -1.3318  -1.3142  -1.3083  -1.2644  -1.2416  -1.2392  -1.2091  -1.1910
    -1.1770  -1.1648  -1.1516  -1.1207  -1.1008  -1.0961  -1.0845  -1.0527
    -1.0215  -1.0137  -0.9953  -0.9747  -0.9354  -0.9211  -0.9084  -0.8915
    -0.8727  -0.8626  -0.8533  -0.8486  -0.8332  -0.8290  -0.8205  -0.7912
    -0.7777  -0.7603  -0.7496  -0.7403  -0.7062  -0.6948  -0.6625  -0.6455
    -0.6365  -0.5510  -0.5229  -0.3777  -0.2379  -0.1395   0.0264   0.1705
     0.2461   0.4137   0.4959   0.5836   0.7676   1.0469   1.1401   1.4334
     1.6829   1.7489   1.8035   1.9523   2.0801   2.3516   2.6967   2.8606
     2.9671   3.0711   3.4102   3.5891   3.8086   3.9586   4.1286   4.2460
     4.3626   4.4943   4.5922   4.6949   4.7943   4.8649   4.9194   5.0225
     5.0826   5.2087   5.3387   5.3951   5.4425   5.5245   5.5716   5.7284
     5.7607   5.8071   5.8212   5.8628   5.9079   5.9582   6.0016   6.0872
     6.2341   6.2485   6.2689   6.3451   6.4044   6.4788   6.5877   6.6330
     6.6823   6.7350   6.8013   6.8795   6.9096   6.9909   7.0495   7.0892
     7.1623   7.1987   7.3139   7.5511   7.5996   7.6742   7.7079   7.8415
     7.9041   7.9386   7.9843   8.0079   8.0941   8.1369   8.2276   8.2803
     8.3565   8.3934   8.5479

     the Fermi energy is    -0.9978 ev

!    total energy              =   -3656.53864749 Ry
     Harris-Foulkes estimate   =   -3656.53864518 Ry
     estimated scf accuracy    <       0.00000043 Ry

     The total energy is the sum of the following terms:

     one-electron contribution =  -77487.38429962 Ry
     hartree contribution      =   39103.11661142 Ry
     xc contribution           =   -1514.20483906 Ry
     ewald contribution        =   36242.09369685 Ry
     electric field correction =       0.00022151 Ry
     smearing contrib. (-TS)   =      -0.16003860 Ry

     total magnetization       =    23.66 Bohr mag/cell
     absolute magnetization    =    27.19 Bohr mag/cell

     convergence has been achieved in  20 iterations

     Forces acting on atoms (Ry/au):

     negative rho (up, down):  8.037E-04 6.553E-04
     atom    1 type  1   force =    -0.00053710   -0.00024002   -0.00053715
     atom    2 type  1   force =    -0.00054116    0.00050059   -0.00077574
     atom    3 type  1   force =     0.00018288   -0.00004676    0.00147501
     atom    4 type  1   force =    -0.00059531   -0.00011307   -0.00083313
     atom    5 type  1   force =     0.00079883    0.00001175    0.00009873
     atom    6 type  1   force =    -0.00055752    0.00009478   -0.00081368
     atom    7 type  1   force =    -0.00089749   -0.00041769    0.00014069
     atom    8 type  1   force =    -0.00091988    0.00043015    0.00016195
     atom    9 type  1   force =     0.00041209   -0.00001194   -0.00132005
     atom   10 type  1   force =     0.00020602    0.00030805   -0.00004029
     atom   11 type  1   force =    -0.00054736    0.00001924    0.00017189
     atom   12 type  1   force =     0.00020456   -0.00032962   -0.00003625
     atom   13 type  1   force =     0.00054447   -0.00039327   -0.00058041
     atom   14 type  1   force =     0.00055361    0.00040866   -0.00063200
     atom   15 type  1   force =     0.00017522   -0.00001414    0.00070131
     atom   16 type  1   force =     0.00050686   -0.00020095    0.00038158
     atom   17 type  1   force =    -0.00120096    0.00002049    0.00020377
     atom   18 type  1   force =     0.00048892    0.00018156    0.00032858
     atom   19 type  1   force =     0.00053872   -0.00077358    0.00042025
     atom   20 type  1   force =     0.00053903    0.00078938    0.00043002
     atom   21 type  1   force =     0.00004317   -0.00001493   -0.00489006
     atom   22 type  1   force =     0.00397710   -0.00037046   -0.00149589
     atom   23 type  1   force =     0.00376887    0.00001696   -0.00223192
     atom   24 type  1   force =     0.00397522    0.00035361   -0.00148224
     atom   25 type  1   force =    -0.00257602    0.00015350   -0.01065077
     atom   26 type  1   force =    -0.00257476   -0.00013598   -0.01064034
     atom   27 type  1   force =    -0.00271420   -0.00001832   -0.01004774
     atom   28 type  1   force =    -0.00187891    0.00026209   -0.01029313
     atom   29 type  1   force =    -0.00206121    0.00000972   -0.01065790
     atom   30 type  1   force =    -0.00187804   -0.00027057   -0.01028898
     atom   31 type  1   force =    -0.00537745   -0.00028310    0.00301137
     atom   32 type  1   force =    -0.00537972    0.00029203    0.00301775
     atom   33 type  1   force =    -0.00577519   -0.00000909    0.00241730
     atom   34 type  1   force =     0.00613621   -0.00002805    0.02125163
     atom   35 type  1   force =     0.00602631    0.00000791    0.02104422
     atom   36 type  1   force =     0.00613647    0.00002072    0.02125608
     atom   37 type  2   force =     0.00079773   -0.00020965    0.00173556

     Total force =     0.048575     Total SCF correction =     0.002193
 !ASE

     Writing output data file calc.save

     General routines

     Parallel routines

   This run was terminated on:  16:18: 3  23Mar2018

   JOB DONE.