     Program PWSCF v.5.1rc2 (svn rev. ) starts on 20Apr2018 at 13:26: 2

     Current dimensions of program PWSCF are:
     Max number of different atomic species (ntypx) = 10
     Max number of k-points (npk) =  40000
     Max angular momentum in pseudopotentials (lmaxx) =  3
     Presently no symmetry can be used with electric field

     IMPORTANT: XC functional enforced from input :
     Exchange-correlation      = RPBE ( 1  4 28  4 0)
     Any further DFT definition will be discarded
     Please, verify this is what you really want

     Subspace diagonalization in iterative solution of the eigenvalue problem:
     a serial algorithm will be used

     Generating pointlists ...
     new r_m :   0.4125 (alat units)  0.7795 (a.u.) for type    1
     new r_m :   0.4125 (alat units)  0.7795 (a.u.) for type    2

     bravais-lattice index     =            0
     lattice parameter (alat)  =       1.8897  a.u.
     unit-cell volume          =   12682.1321 (a.u.)^3
     number of atoms/cell      =           37
     number of atomic types    =            2
     number of electrons       =       330.00
     number of Kohn-Sham states=          265
     kinetic-energy cutoff     =      44.0992  Ry
     charge density cutoff     =     440.9919  Ry
     convergence threshold     =      7.3E-07
     mixing beta               =       0.1000
     number of iterations used =           10  plain     mixing
     Exchange-correlation      = RPBE ( 1  4 28  4 0)
     nstep                     =           50

     celldm(1)=   1.889726  celldm(2)=   0.000000  celldm(3)=   0.000000
     celldm(4)=   0.000000  celldm(5)=   0.000000  celldm(6)=   0.000000

     crystal axes: (cart. coord. in units of alat)
               a(1) = (   6.191574   0.000000   0.000000 )
               a(2) = (   0.000000   7.583099   0.000000 )
               a(3) = (   0.000000   0.000000  40.026524 )

     reciprocal axes: (cart. coord. in units 2 pi/alat)
               b(1) = (  0.161510  0.000000  0.000000 )
               b(2) = (  0.000000  0.131872  0.000000 )
               b(3) = (  0.000000  0.000000  0.024983 )

     PseudoPot. # 1 for Co read from file:
     /home/alatimer/bin/psp/esp_psp_w_gbrvRu/Co.UPF
     MD5 check sum: f36dda9fe147c5f42efc2a4f7ec0da3d
     Pseudo is Ultrasoft + core correction, Zval =  9.0
     Generated by new atomic code, or converted to UPF format
     Using radial grid of  937 points,  3 beta functions with:
                l(1) =   1
                l(2) =   2
                l(3) =   2
     Q(r) pseudized with  8 coefficients,  rinner =    1.000   1.000   1.000
                                                       1.000   1.000

     PseudoPot. # 2 for  O read from file:
     /home/alatimer/bin/psp/esp_psp_w_gbrvRu/O.UPF
     MD5 check sum: e057bbcf3229fb5d8c36c0c92f9568b4
     Pseudo is Ultrasoft + core correction, Zval =  6.0
     Generated using "atomic" code by A. Dal Corso  v.5.0.2 svn rev. 9415
     Using radial grid of 1095 points,  4 beta functions with:
                l(1) =   0
                l(2) =   0
                l(3) =   1
                l(4) =   1
     Q(r) pseudized with 0 coefficients

     atomic species   valence    mass     pseudopotential
        Co1            9.00    58.93320     Co( 1.00)
        O1             6.00    15.99940      O( 1.00)

     Starting magnetic structure
     atomic species   magnetization
        Co1          0.444
        O1           0.667

     No symmetry found

   Cartesian axes

     site n.     atom                  positions (alat units)
         1           Co1 tau(   1) = (   4.1277161   1.2638498  24.0265242  )
         2           Co1 tau(   2) = (   4.1277161   3.7915494  24.0265242  )
         3           Co1 tau(   3) = (   4.1277161   6.3192490  24.0265242  )
         4           Co1 tau(   4) = (   2.0638581   0.0000000  23.2968402  )
         5           Co1 tau(   5) = (   2.0638581   2.5276996  23.2968402  )
         6           Co1 tau(   6) = (   2.0638581   5.0553992  23.2968402  )
         7           Co1 tau(   7) = (   0.0000000   1.2638498  22.5671562  )
         8           Co1 tau(   8) = (   0.0000000   3.7915494  22.5671562  )
         9           Co1 tau(   9) = (   0.0000000   6.3192490  22.5671562  )
        10           Co1 tau(  10) = (   4.1277161   0.0000000  21.8374721  )
        11           Co1 tau(  11) = (   4.1277161   2.5276996  21.8374721  )
        12           Co1 tau(  12) = (   4.1277161   5.0553992  21.8374721  )
        13           Co1 tau(  13) = (   2.0638581   1.2638498  21.1077881  )
        14           Co1 tau(  14) = (   2.0638581   3.7915494  21.1077881  )
        15           Co1 tau(  15) = (   2.0638581   6.3192490  21.1077881  )
        16           Co1 tau(  16) = (   0.0000000   0.0000000  20.3781041  )
        17           Co1 tau(  17) = (   0.0000000   2.5276996  20.3781041  )
        18           Co1 tau(  18) = (   0.0000000   5.0553992  20.3781041  )
        19           Co1 tau(  19) = (   4.1277161   1.2638498  19.6484201  )
        20           Co1 tau(  20) = (   4.1277161   3.7915494  19.6484201  )
        21           Co1 tau(  21) = (   4.1277161   6.3192490  19.6484201  )
        22           Co1 tau(  22) = (   2.0638581   0.0000000  18.9187361  )
        23           Co1 tau(  23) = (   2.0638581   2.5276996  18.9187361  )
        24           Co1 tau(  24) = (   2.0638581   5.0553992  18.9187361  )
        25           Co1 tau(  25) = (   0.0000000   1.2638498  18.1890521  )
        26           Co1 tau(  26) = (   0.0000000   3.7915494  18.1890521  )
        27           Co1 tau(  27) = (   0.0000000   6.3192490  18.1890521  )
        28           Co1 tau(  28) = (   4.1277161   0.0000000  17.4593680  )
        29           Co1 tau(  29) = (   4.1277161   2.5276996  17.4593680  )
        30           Co1 tau(  30) = (   4.1277161   5.0553992  17.4593680  )
        31           Co1 tau(  31) = (   2.0638581   1.2638498  16.7296840  )
        32           Co1 tau(  32) = (   2.0638581   3.7915494  16.7296840  )
        33           Co1 tau(  33) = (   2.0638581   6.3192490  16.7296840  )
        34           Co1 tau(  34) = (   0.0000000   0.0000000  16.0000000  )
        35           Co1 tau(  35) = (   0.0000000   2.5276996  16.0000000  )
        36           Co1 tau(  36) = (   0.0000000   5.0553992  16.0000000  )
        37           O1  tau(  37) = (   2.0638581   1.2638498  24.6968402  )

     number of k points=    10  Fermi-Dirac smearing, width (Ry)=  0.0073
                       cart. coord. in units 2pi/alat
        k(    1) = (   0.0000000   0.0000000   0.0000000), wk =   0.1111111
        k(    2) = (   0.0000000   0.0439574   0.0000000), wk =   0.2222222
        k(    3) = (   0.0538366   0.0000000   0.0000000), wk =   0.2222222
        k(    4) = (   0.0538366   0.0439574   0.0000000), wk =   0.2222222
        k(    5) = (   0.0538366  -0.0439574   0.0000000), wk =   0.2222222
        k(    6) = (   0.0000000   0.0000000   0.0000000), wk =   0.1111111
        k(    7) = (   0.0000000   0.0439574   0.0000000), wk =   0.2222222
        k(    8) = (   0.0538366   0.0000000   0.0000000), wk =   0.2222222
        k(    9) = (   0.0538366   0.0439574   0.0000000), wk =   0.2222222
        k(   10) = (   0.0538366  -0.0439574   0.0000000), wk =   0.2222222

     Largest allocated arrays     est. size (Mb)     dimensions
     Largest temporary arrays     est. size (Mb)     dimensions

     Check: negative/imaginary core charge=   -0.000002    0.000000

     Initial potential from superposition of free atoms
     Check: negative starting charge=(component1):   -0.004334
     Check: negative starting charge=(component2):   -0.001664

     starting charge  329.99032, renormalised to  330.00000

     negative rho (up, down):  4.334E-03 1.664E-03

     Adding external electric field

     Computed dipole along edir(3) :
        Dipole               -0.0015 Ry au,         -0.0039 Debye
        Dipole field         -0.0000 Ry au

        Potential amp.        0.0002 Ry
        Total length         73.7482 bohr

[...]

     Starting wfc are  328 randomized atomic wfcs

     Self-consistent Calculation

     iteration #  1     ecut=    44.10 Ry     beta=0.10
     Davidson diagonalization with overlap
     ethr =  1.00E-02,  avg # of iterations =  7.7

[...]

     Magnetic moment per site:
     atom:    1    charge:    3.1722    magn:    1.4279    constr:    0.0000
     atom:    2    charge:    3.1735    magn:    1.4245    constr:    0.0000
     atom:    3    charge:    3.1735    magn:    1.4245    constr:    0.0000
     atom:    4    charge:    3.2054    magn:    1.3952    constr:    0.0000
     atom:    5    charge:    3.2053    magn:    1.3952    constr:    0.0000
     atom:    6    charge:    3.2038    magn:    1.3955    constr:    0.0000
     atom:    7    charge:    3.2141    magn:    1.3844    constr:    0.0000
     atom:    8    charge:    3.2163    magn:    1.3821    constr:    0.0000
     atom:    9    charge:    3.2164    magn:    1.3821    constr:    0.0000
     atom:   10    charge:    3.2303    magn:    1.3682    constr:    0.0000
     atom:   11    charge:    3.2303    magn:    1.3682    constr:    0.0000
     atom:   12    charge:    3.2303    magn:    1.3683    constr:    0.0000
     atom:   13    charge:    3.2305    magn:    1.3694    constr:    0.0000
     atom:   14    charge:    3.2307    magn:    1.3687    constr:    0.0000
     atom:   15    charge:    3.2307    magn:    1.3687    constr:    0.0000
     atom:   16    charge:    3.2307    magn:    1.3685    constr:    0.0000
     atom:   17    charge:    3.2307    magn:    1.3685    constr:    0.0000
     atom:   18    charge:    3.2307    magn:    1.3687    constr:    0.0000
     atom:   19    charge:    3.2301    magn:    1.3686    constr:    0.0000
     atom:   20    charge:    3.2300    magn:    1.3687    constr:    0.0000
     atom:   21    charge:    3.2300    magn:    1.3687    constr:    0.0000
     atom:   22    charge:    3.2306    magn:    1.3691    constr:    0.0000
     atom:   23    charge:    3.2306    magn:    1.3691    constr:    0.0000
     atom:   24    charge:    3.2301    magn:    1.3693    constr:    0.0000
     atom:   25    charge:    3.2305    magn:    1.3683    constr:    0.0000
     atom:   26    charge:    3.2303    magn:    1.3684    constr:    0.0000
     atom:   27    charge:    3.2303    magn:    1.3684    constr:    0.0000
     atom:   28    charge:    3.2162    magn:    1.3814    constr:    0.0000
     atom:   29    charge:    3.2162    magn:    1.3814    constr:    0.0000
     atom:   30    charge:    3.2158    magn:    1.3816    constr:    0.0000
     atom:   31    charge:    3.2029    magn:    1.3957    constr:    0.0000
     atom:   32    charge:    3.2028    magn:    1.3956    constr:    0.0000
     atom:   33    charge:    3.2028    magn:    1.3956    constr:    0.0000
     atom:   34    charge:    3.1748    magn:    1.4231    constr:    0.0000
     atom:   35    charge:    3.1748    magn:    1.4231    constr:    0.0000
     atom:   36    charge:    3.1749    magn:    1.4230    constr:    0.0000
[...]
    -4.6454  -4.6306  -4.6098  -4.6002  -4.5842  -4.5661  -4.4971  -4.4763
    -4.4551  -4.4380  -4.3606  -4.3526  -4.2768  -4.2632  -4.2150  -4.2102
    -4.1376  -4.1247  -3.9977  -3.9795  -3.9759  -3.9664  -3.9013  -3.8942
    -3.8426  -3.8310  -3.8185  -3.8027  -3.7795  -3.7510  -3.7262  -3.7185
    -3.6946  -3.6825  -3.6719  -3.6667  -3.6386  -3.5872  -3.5698  -3.5292
    -3.5262  -3.5083  -3.5059  -3.4857  -3.4530  -3.3959  -3.3804  -3.3565
    -3.3330  -3.3163  -3.3018  -3.2798  -3.2684  -3.2678  -3.2630  -3.2587
    -3.2131  -3.2119  -3.2066  -3.1689  -3.1608  -3.1393  -3.0993  -3.0876
    -3.0819  -3.0729  -3.0591  -3.0344  -3.0317  -3.0226  -3.0101  -3.0098
    -3.0004  -2.9784  -2.9397  -2.9324  -2.9090  -2.8994  -2.8809  -2.8595
    -2.8424  -2.8115  -2.7811  -2.7719  -2.7568  -2.7443  -2.7038  -2.7005
    -2.6788  -2.6358  -2.6196  -2.6187  -2.5859  -2.5560  -2.5524  -2.5199
    -2.4966  -2.4864  -2.4791  -2.4592  -2.4163  -2.4123  -2.3909  -2.3251
    -2.3117  -2.2827  -2.2710  -2.2565  -2.2141  -2.1871  -2.1853  -2.1762
    -2.1706  -2.1611  -2.1550  -2.1508  -2.1156  -2.1014  -2.0917  -2.0582
    -2.0567  -2.0385  -2.0184  -1.9837  -1.9787  -1.9726  -1.9689  -1.9577
    -1.9325  -1.9265  -1.9180  -1.8903  -1.8541  -1.8369  -1.8334  -1.8037
    -1.7657  -1.7455  -1.7314  -1.7227  -1.7124  -1.6996  -1.6774  -1.6519
    -1.6443  -1.6434  -1.6345  -1.6310  -1.5934  -1.5890  -1.5668  -1.5585
    -1.5411  -1.5383  -1.5318  -1.5124  -1.4369  -1.4354  -1.3639  -1.3474
    -1.2534  -0.9909  -0.8292  -0.6363  -0.4159  -0.2896  -0.0569   0.4069
     0.4366   0.5058   0.5247   0.5735   0.6305   1.0087   1.0511   1.2085
     1.2599   1.2672   1.4446   1.6671   1.8451   2.2989   2.5317   2.6883
     2.8014   2.8428   3.0003   3.0984   3.2650   3.4901   3.5525   3.6256
     3.8936   3.9748   4.1594   4.5184   4.6434   4.7059   4.7310   4.8641
     4.9409   5.0497   5.2169   5.4699   5.5902   5.8457   5.8712   6.0014
     6.0553   6.1011   6.1268   6.1337   6.1730   6.2489   6.2538   6.4594
     6.4830   6.5497   6.5639   6.6444   6.7159   6.8652   6.9426   7.1533
     7.1968   7.2245   7.2466   7.2595   7.3277   7.3862   7.3985   7.4240
     7.4642

[...]

 ------ SPIN DOWN ----------

[...]

     the Fermi energy is    -0.5824 ev

!    total energy              =   -2918.89786945 Ry
     Harris-Foulkes estimate   =   -2918.89785991 Ry
     estimated scf accuracy    <       0.00000060 Ry

     The total energy is the sum of the following terms:

     one-electron contribution =  -62070.48743391 Ry
     hartree contribution      =   31335.24219935 Ry
     xc contribution           =   -1336.11568986 Ry
     ewald contribution        =   29152.57326042 Ry
     electric field correction =       0.00002155 Ry
     smearing contrib. (-TS)   =      -0.11022699 Ry

[...]

     convergence has been achieved in  49 iterations

     Forces acting on atoms (Ry/au):

     negative rho (up, down):  6.693E-03 1.887E-02
     atom    1 type  1   force =    -0.02878451   -0.00000031   -0.01445127
     atom    2 type  1   force =     0.00348390    0.01019780   -0.03111130
     atom    3 type  1   force =     0.00348427   -0.01020143   -0.03111044
     atom    4 type  1   force =     0.00002652   -0.00887272    0.01338590
     atom    5 type  1   force =     0.00002518    0.00887130    0.01338598
     atom    6 type  1   force =     0.00946036   -0.00000219   -0.01762916
     atom    7 type  1   force =    -0.01410176    0.00000088    0.00337570
     atom    8 type  1   force =    -0.00208952    0.00065028    0.00647285
     atom    9 type  1   force =    -0.00209073   -0.00064970    0.00647250
     atom   10 type  1   force =    -0.00123255   -0.00142109    0.01576859
     atom   11 type  1   force =    -0.00123269    0.00142305    0.01576897
     atom   12 type  1   force =    -0.00417017   -0.00000153    0.01604471
     atom   13 type  1   force =     0.00159263    0.00000173    0.00498744
     atom   14 type  1   force =     0.00236502    0.00377011    0.00249727
     atom   15 type  1   force =     0.00236505   -0.00377111    0.00249688
     atom   16 type  1   force =     0.00292842   -0.00036258    0.00287971
     atom   17 type  1   force =     0.00292860    0.00036413    0.00288061
     atom   18 type  1   force =     0.00197033   -0.00000131    0.00376413
     atom   19 type  1   force =    -0.00183982    0.00000107   -0.00384554
     atom   20 type  1   force =    -0.00246743    0.00020712   -0.00275218
     atom   21 type  1   force =    -0.00246694   -0.00020775   -0.00275297
     atom   22 type  1   force =    -0.00186715   -0.00019262   -0.00826804
     atom   23 type  1   force =    -0.00186712    0.00019346   -0.00826805
     atom   24 type  1   force =    -0.00183571   -0.00000043   -0.00502706
     atom   25 type  1   force =     0.00384428    0.00000055   -0.01747485
     atom   26 type  1   force =     0.00349945   -0.00003851   -0.01753839
     atom   27 type  1   force =     0.00349848    0.00003744   -0.01753899
     atom   28 type  1   force =     0.00120533    0.00015922   -0.01005829
     atom   29 type  1   force =     0.00120605   -0.00015789   -0.01005814
     atom   30 type  1   force =     0.00115234   -0.00000032   -0.01007100
     atom   31 type  1   force =    -0.00741384    0.00000059    0.01308915
     atom   32 type  1   force =    -0.00764668   -0.00021547    0.01203014
     atom   33 type  1   force =    -0.00764684    0.00021560    0.01202861
     atom   34 type  1   force =     0.00360482   -0.00006546    0.02695579
     atom   35 type  1   force =     0.00360455    0.00006720    0.02695661
     atom   36 type  1   force =     0.00375491    0.00000068    0.02690795
     atom   37 type  2   force =     0.03275295    0.00000024   -0.02019383

     Total force =     0.105606     Total SCF correction =     0.002264
 !ASE

     Writing output data file calc.save
     Check: negative starting charge=(component1):   -0.005997
     NEW-OLD atomic charge density approx. for the potential

     Check: negative/imaginary core charge=   -0.000002    0.000000
     Check: negative starting charge=(component1):   -0.006435

[...]

     Writing output data file calc.save
     Check: negative starting charge=(component1):   -0.006579
     NEW-OLD atomic charge density approx. for the potential

     Check: negative/imaginary core charge=   -0.000002    0.000000
     Check: negative starting charge=(component1):   -0.006579

[...]

     Self-consistent Calculation

[...]

     iteration #  3     ecut=    44.10 Ry     beta=0.10
     Davidson diagonalization with overlap
     c_bands:  1 eigenvalues not converged
     ethr =  2.15E-06,  avg # of iterations =  9.1

[...]

     total energy              =   -2918.92658557 Ry
     Harris-Foulkes estimate   =   -2918.92649766 Ry
     estimated scf accuracy    <       0.00000164 Ry

[...]

     iteration # 19     ecut=    44.10 Ry     beta=0.10
     Davidson diagonalization with overlap
     ethr =  2.45E-10,  avg # of iterations =  2.0

     negative rho (up, down):  7.332E-03 2.023E-02

[...]

     Adding external electric field

     Computed dipole along edir(3) :
        Dipole               -0.1820 Ry au,         -0.4626 Debye
        Dipole field         -0.0002 Ry au

        Potential amp.        0.0266 Ry
        Total length         73.7482 bohr

     Magnetic moment per site:
     atom:    1    charge:    3.0328    magn:    0.8794    constr:    0.0000
     atom:    2    charge:    2.9629    magn:    0.9406    constr:    0.0000
     atom:    3    charge:    2.9628    magn:    0.9406    constr:    0.0000
     atom:    4    charge:    3.1505    magn:    0.9112    constr:    0.0000
     atom:    5    charge:    3.1506    magn:    0.9112    constr:    0.0000
     atom:    6    charge:    3.0927    magn:    0.9579    constr:    0.0000
     atom:    7    charge:    3.1616    magn:    0.9585    constr:    0.0000
     atom:    8    charge:    3.1984    magn:    0.9751    constr:    0.0000
     atom:    9    charge:    3.1984    magn:    0.9750    constr:    0.0000
     atom:   10    charge:    3.1939    magn:    0.9599    constr:    0.0000
     atom:   11    charge:    3.1939    magn:    0.9600    constr:    0.0000
     atom:   12    charge:    3.1788    magn:    0.9261    constr:    0.0000
     atom:   13    charge:    3.1801    magn:    0.9725    constr:    0.0000
     atom:   14    charge:    3.1959    magn:    0.9399    constr:    0.0000
     atom:   15    charge:    3.1959    magn:    0.9398    constr:    0.0000
     atom:   16    charge:    3.1953    magn:    0.9466    constr:    0.0000
     atom:   17    charge:    3.1953    magn:    0.9467    constr:    0.0000
     atom:   18    charge:    3.1959    magn:    0.9514    constr:    0.0000
     atom:   19    charge:    3.1995    magn:    0.9589    constr:    0.0000
     atom:   20    charge:    3.1985    magn:    0.9442    constr:    0.0000
     atom:   21    charge:    3.1985    magn:    0.9441    constr:    0.0000
     atom:   22    charge:    3.1999    magn:    0.9547    constr:    0.0000
     atom:   23    charge:    3.1999    magn:    0.9547    constr:    0.0000
     atom:   24    charge:    3.1993    magn:    0.9517    constr:    0.0000
     atom:   25    charge:    3.1992    magn:    0.9520    constr:    0.0000
     atom:   26    charge:    3.1993    magn:    0.9565    constr:    0.0000
     atom:   27    charge:    3.1993    magn:    0.9565    constr:    0.0000
     atom:   28    charge:    3.2027    magn:    0.9725    constr:    0.0000
     atom:   29    charge:    3.2027    magn:    0.9725    constr:    0.0000
     atom:   30    charge:    3.2028    magn:    0.9771    constr:    0.0000
     atom:   31    charge:    3.2082    magn:    0.9929    constr:    0.0000
     atom:   32    charge:    3.2081    magn:    0.9910    constr:    0.0000
     atom:   33    charge:    3.2081    magn:    0.9911    constr:    0.0000
     atom:   34    charge:    3.2204    magn:    1.0025    constr:    0.0000
     atom:   35    charge:    3.2204    magn:    1.0026    constr:    0.0000
     atom:   36    charge:    3.2202    magn:    1.0018    constr:    0.0000
     atom:   37    charge:    1.7095    magn:    0.0639    constr:    0.0000

     End of self-consistent calculation

 ------ SPIN UP ------------

[...]

 ------ SPIN DOWN ----------

[...]

          k = 0.0538-0.0440 0.0000 ( 62686 PWs)   bands (ev):

   -19.1742  -8.3326  -7.4783  -7.2280  -6.9992  -6.4784  -6.2665  -6.1226
    -5.7227  -5.6069  -5.4527  -5.1877  -5.1498  -4.9023  -4.7023  -4.6606
    -4.5315  -4.4686  -4.3882  -4.3470  -4.2903  -4.1824  -4.0286  -4.0064
    -3.9288  -3.8576  -3.8219  -3.7737  -3.6631  -3.6258  -3.5961  -3.5858
    -3.5385  -3.5216  -3.4424  -3.4103  -3.3960  -3.3586  -3.2433  -3.1736
    -3.1291  -3.1054  -3.0924  -3.0644  -3.0543  -2.9969  -2.9846  -2.9328
    -2.8906  -2.8634  -2.8293  -2.8002  -2.7606  -2.7202  -2.6948  -2.6556
    -2.6270  -2.6067  -2.5133  -2.4902  -2.4738  -2.4571  -2.4068  -2.3868
    -2.3212  -2.2819  -2.2681  -2.2427  -2.2238  -2.2110  -2.1644  -2.1546
    -2.0982  -2.0788  -2.0350  -2.0111  -1.9965  -1.9822  -1.9494  -1.9226
    -1.8888  -1.8736  -1.8360  -1.8078  -1.7852  -1.7730  -1.7484  -1.7318
    -1.7004  -1.6918  -1.6749  -1.6455  -1.5966  -1.5631  -1.5343  -1.5240
    -1.5044  -1.4808  -1.4641  -1.4357  -1.4200  -1.4031  -1.3883  -1.3564
    -1.3395  -1.3305  -1.3193  -1.2910  -1.2689  -1.2430  -1.2128  -1.2075
    -1.1807  -1.1631  -1.1366  -1.1136  -1.0734  -1.0571  -1.0260  -0.9759
    -0.9565  -0.9483  -0.9337  -0.9065  -0.8889  -0.8407  -0.8368  -0.8012
    -0.7740  -0.7587  -0.7221  -0.6982  -0.6662  -0.6427  -0.5819  -0.5603
    -0.5429  -0.5061  -0.4711  -0.4376  -0.4214  -0.4108  -0.3930  -0.3774
    -0.3567  -0.3389  -0.3141  -0.3033  -0.2692  -0.2595  -0.2416  -0.2141
    -0.1910  -0.1718  -0.1401  -0.1365  -0.1115  -0.0936  -0.0705  -0.0540
    -0.0393  -0.0203   0.0039   0.0297   0.0509   0.0765   0.0961   0.1087
     0.1320   0.1488   0.1842   0.2055   0.2236   0.2328   0.2796   0.3155
     0.3217   0.3403   0.3494   0.3576   0.3623   0.3804   0.3862   0.4095
     0.4270   0.4454   0.4493   0.4626   0.4735   0.4911   0.5113   0.5247
     0.5356   0.6116   0.6313   0.7132   0.8190   0.9460   1.0654   1.1918
     1.2474   1.3381   1.4092   1.5053   1.5549   1.7229   2.1075   2.2218
     2.4830   2.6263   2.7246   2.7771   2.9089   3.1168   3.3539   3.4817
     3.6226   3.6990   3.8401   4.0052   4.1480   4.1859   4.3143   4.5279
     4.5616   4.6129   4.7275   4.7916   4.9764   5.0107   5.0357   5.0740
     5.1304   5.2034   5.3835   5.4379   5.4543   5.5349   5.5653   5.6119
     5.7323   5.8143   5.8584   5.9969   6.0946   6.1677   6.2437   6.3222
     6.3542   6.4402   6.5096   6.5455   6.5771   6.6911   6.7788   6.8484
     6.8865   6.9586   7.0031   7.0986   7.1223   7.1748   7.2192   7.3310
     7.4221

     the Fermi energy is    -0.6129 ev

!    total energy              =   -2918.92717752 Ry
     Harris-Foulkes estimate   =   -2918.92658504 Ry
     estimated scf accuracy    <       0.00000027 Ry

     The total energy is the sum of the following terms:

     one-electron contribution =  -62275.45215156 Ry
     hartree contribution      =   31437.25596233 Ry
     xc contribution           =   -1336.27910183 Ry
     ewald contribution        =   29255.65719563 Ry
     electric field correction =       0.00003282 Ry
     smearing contrib. (-TS)   =      -0.10911490 Ry

     total magnetization       =    62.64 Bohr mag/cell
     absolute magnetization    =    68.92 Bohr mag/cell

     convergence has been achieved in  19 iterations

     Forces acting on atoms (Ry/au):

     negative rho (up, down):  7.332E-03 2.023E-02
     atom    1 type  1   force =     0.00156214    0.00004660    0.00025220
     atom    2 type  1   force =     0.00027169   -0.00003062    0.00049901
     atom    3 type  1   force =     0.00031270   -0.00003664    0.00058521
     atom    4 type  1   force =     0.00049033   -0.00012013    0.00019975
     atom    5 type  1   force =     0.00046567    0.00029029    0.00010771
     atom    6 type  1   force =    -0.00108319   -0.00012730    0.00096048
     atom    7 type  1   force =     0.00106854    0.00007078   -0.00117295
     atom    8 type  1   force =     0.00057814   -0.00066133   -0.00056777
     atom    9 type  1   force =     0.00055785    0.00058309   -0.00054719
     atom   10 type  1   force =     0.00014703    0.00034408   -0.00090298
     atom   11 type  1   force =     0.00012057   -0.00019717   -0.00084916
     atom   12 type  1   force =     0.00086035   -0.00012882   -0.00065505
     atom   13 type  1   force =    -0.00042584    0.00012668   -0.00042815
     atom   14 type  1   force =    -0.00021879   -0.00014928   -0.00017125
     atom   15 type  1   force =    -0.00020871    0.00002124   -0.00022531
     atom   16 type  1   force =    -0.00013439    0.00010850   -0.00052108
     atom   17 type  1   force =    -0.00008900    0.00000842   -0.00046680
     atom   18 type  1   force =    -0.00068708   -0.00012178   -0.00017506
     atom   19 type  1   force =    -0.00281153   -0.00000189   -0.00332360
     atom   20 type  1   force =     0.00020023   -0.00146990   -0.00788178
     atom   21 type  1   force =     0.00017025    0.00147687   -0.00793031
     atom   22 type  1   force =    -0.00192828    0.00183777   -0.00667110
     atom   23 type  1   force =    -0.00191807   -0.00182910   -0.00664138
     atom   24 type  1   force =    -0.00003732   -0.00000454   -0.00676860
     atom   25 type  1   force =     0.00356255    0.00000198   -0.01526435
     atom   26 type  1   force =     0.00362736   -0.00085346   -0.01609134
     atom   27 type  1   force =     0.00362379    0.00085285   -0.01611344
     atom   28 type  1   force =     0.00108500    0.00054094   -0.00959333
     atom   29 type  1   force =     0.00108430   -0.00053403   -0.00958834
     atom   30 type  1   force =     0.00130203   -0.00000659   -0.00967405
     atom   31 type  1   force =    -0.00738730    0.00000786    0.01324357
     atom   32 type  1   force =    -0.00776987   -0.00047022    0.01207029
     atom   33 type  1   force =    -0.00776938    0.00046376    0.01206243
     atom   34 type  1   force =     0.00320665    0.00005801    0.02747869
     atom   35 type  1   force =     0.00320623   -0.00005612    0.02748063
     atom   36 type  1   force =     0.00331787   -0.00000772    0.02743404
     atom   37 type  2   force =     0.00164748   -0.00003310   -0.00014964

     Total force =     0.065770     Total SCF correction =     0.001907
 !ASE

     Writing output data file calc.save

     General routines

     Parallel routines

   This run was terminated on:  23: 3: 0  20Apr2018

   JOB DONE.