     Program PWSCF v.5.1rc2 (svn rev. ) starts on 24Feb2018 at  4:16:10

     Current dimensions of program PWSCF are:
     Max number of different atomic species (ntypx) = 10
     Max number of k-points (npk) =  40000
     Max angular momentum in pseudopotentials (lmaxx) =  3
     Presently no symmetry can be used with electric field

     IMPORTANT: XC functional enforced from input :
     Exchange-correlation      = RPBE ( 1  4 28  4 0)
     Any further DFT definition will be discarded
     Please, verify this is what you really want

     Subspace diagonalization in iterative solution of the eigenvalue problem:
     a serial algorithm will be used

     Generating pointlists ...
     new r_m :   0.4125 (alat units)  0.7795 (a.u.) for type    1
     new r_m :   0.4125 (alat units)  0.7795 (a.u.) for type    2

     bravais-lattice index     =            0
     lattice parameter (alat)  =       1.8897  a.u.
     unit-cell volume          =   10312.9744 (a.u.)^3
     number of atoms/cell      =           37
     number of atomic types    =            2
     number of electrons       =       328.00
     number of Kohn-Sham states=          264
     kinetic-energy cutoff     =      44.0992  Ry
     charge density cutoff     =     440.9919  Ry
     convergence threshold     =      7.3E-07
     mixing beta               =       0.1000
     number of iterations used =           10  plain     mixing
     Exchange-correlation      = RPBE ( 1  4 28  4 0)
     nstep                     =           50

     celldm(1)=   1.889726  celldm(2)=   0.000000  celldm(3)=   0.000000
     celldm(4)=   0.000000  celldm(5)=   0.000000  celldm(6)=   0.000000

     crystal axes: (cart. coord. in units of alat)
               a(1) = (  13.134537   0.000000   0.000000 )
               a(2) = (  -4.378179   6.191680   0.000000 )
               a(3) = (   0.000000   0.000000  18.791614 )

     reciprocal axes: (cart. coord. in units 2 pi/alat)
               b(1) = (  0.076135  0.053836  0.000000 )
               b(2) = (  0.000000  0.161507  0.000000 )
               b(3) = (  0.000000  0.000000  0.053215 )

     PseudoPot. # 1 for Co read from file:
     /home/alatimer/bin/psp/esp_psp_w_gbrvRu/Co.UPF
     MD5 check sum: f36dda9fe147c5f42efc2a4f7ec0da3d
     Pseudo is Ultrasoft + core correction, Zval =  9.0
     Generated by new atomic code, or converted to UPF format
     Using radial grid of  937 points,  3 beta functions with:
                l(1) =   1
                l(2) =   2
                l(3) =   2
     Q(r) pseudized with  8 coefficients,  rinner =    1.000   1.000   1.000
                                                       1.000   1.000

     PseudoPot. # 2 for  C read from file:
     /home/alatimer/bin/psp/esp_psp_w_gbrvRu/C.UPF
     MD5 check sum: ab446d787031eba755f1d5ee46644bb0
     Pseudo is Ultrasoft + core correction, Zval =  4.0
     Generated using "atomic" code by A. Dal Corso  v.5.0.2 svn rev. 9415
     Using radial grid of 1073 points,  4 beta functions with:
                l(1) =   0
                l(2) =   0
                l(3) =   1
                l(4) =   1
     Q(r) pseudized with 0 coefficients

     atomic species   valence    mass     pseudopotential
        Co1            9.00    58.93320     Co( 1.00)
        C1             4.00    12.01100      C( 1.00)

     Starting magnetic structure
     atomic species   magnetization
        Co1          0.444
        C1           1.000

     No symmetry found

   Cartesian axes

     site n.     atom                  positions (alat units)
         1           Co1 tau(   1) = (   0.0000000   0.0000000   7.5000000  )
         2           Co1 tau(   2) = (   2.1890894   0.0000000   8.7638714  )
         3           Co1 tau(   3) = (   0.0000000   0.0000000  10.0277427  )
         4           Co1 tau(   4) = (   2.1890894   0.0000000  11.2916141  )
         5           Co1 tau(   5) = (  -1.4593930   2.0638933   7.5000000  )
         6           Co1 tau(   6) = (   0.7296965   2.0638933   8.7638714  )
         7           Co1 tau(   7) = (  -1.4593930   2.0638933  10.0277427  )
         8           Co1 tau(   8) = (   0.7296965   2.0638933  11.2916141  )
         9           Co1 tau(   9) = (  -2.9187859   4.1277866   7.5000000  )
        10           Co1 tau(  10) = (  -0.7296965   4.1277866   8.7638714  )
        11           Co1 tau(  11) = (  -2.9187859   4.1277866  10.0277427  )
        12           Co1 tau(  12) = (  -0.7296965   4.1277866  11.2916141  )
        13           Co1 tau(  13) = (   4.3781789   0.0000000   7.5000000  )
        14           Co1 tau(  14) = (   6.5672683   0.0000000   8.7638714  )
        15           Co1 tau(  15) = (   4.3781789   0.0000000  10.0277427  )
        16           Co1 tau(  16) = (   6.5672683   0.0000000  11.2916141  )
        17           Co1 tau(  17) = (   2.9187859   2.0638933   7.5000000  )
        18           Co1 tau(  18) = (   5.1078753   2.0638933   8.7638714  )
        19           Co1 tau(  19) = (   2.9187859   2.0638933  10.0277427  )
        20           Co1 tau(  20) = (   5.1078753   2.0638933  11.2916141  )
        21           Co1 tau(  21) = (   1.4593930   4.1277866   7.5000000  )
        22           Co1 tau(  22) = (   3.6484824   4.1277866   8.7638714  )
        23           Co1 tau(  23) = (   1.4593930   4.1277866  10.0277427  )
        24           Co1 tau(  24) = (   3.6484824   4.1277866  11.2916141  )
        25           Co1 tau(  25) = (   8.7563577   0.0000000   7.5000000  )
        26           Co1 tau(  26) = (  10.9454471   0.0000000   8.7638714  )
        27           Co1 tau(  27) = (   8.7563577   0.0000000  10.0277427  )
        28           Co1 tau(  28) = (  10.9454471   0.0000000  11.2916141  )
        29           Co1 tau(  29) = (   7.2969648   2.0638933   7.5000000  )
        30           Co1 tau(  30) = (   9.4860542   2.0638933   8.7638714  )
        31           Co1 tau(  31) = (   7.2969648   2.0638933  10.0277427  )
        32           Co1 tau(  32) = (   9.4860542   2.0638933  11.2916141  )
        33           Co1 tau(  33) = (   5.8375718   4.1277866   7.5000000  )
        34           Co1 tau(  34) = (   8.0266612   4.1277866   8.7638714  )
        35           Co1 tau(  35) = (   5.8375718   4.1277866  10.0277427  )
        36           Co1 tau(  36) = (   8.0266612   4.1277866  11.2916141  )
        37           C1  tau(  37) = (   1.4593930   1.0319467  12.8916141  )

     number of k points=    10  Fermi-Dirac smearing, width (Ry)=  0.0073
                       cart. coord. in units 2pi/alat
        k(    1) = (   0.0000000   0.0000000   0.0000000), wk =   0.1111111
        k(    2) = (   0.0000000   0.0538357   0.0000000), wk =   0.2222222
        k(    3) = (   0.0253784   0.0179452   0.0000000), wk =   0.2222222
        k(    4) = (   0.0253784   0.0717809   0.0000000), wk =   0.2222222
        k(    5) = (   0.0253784  -0.0358905   0.0000000), wk =   0.2222222
        k(    6) = (   0.0000000   0.0000000   0.0000000), wk =   0.1111111
        k(    7) = (   0.0000000   0.0538357   0.0000000), wk =   0.2222222
        k(    8) = (   0.0253784   0.0179452   0.0000000), wk =   0.2222222
        k(    9) = (   0.0253784   0.0717809   0.0000000), wk =   0.2222222
        k(   10) = (   0.0253784  -0.0358905   0.0000000), wk =   0.2222222

     Largest allocated arrays     est. size (Mb)     dimensions
     Largest temporary arrays     est. size (Mb)     dimensions

     Initial potential from superposition of free atoms
     Check: negative starting charge=(component1):   -0.002675
     Check: negative starting charge=(component2):   -0.001079

     starting charge  327.99028, renormalised to  328.00000

     negative rho (up, down):  2.675E-03 1.079E-03

     Adding external electric field

     Computed dipole along edir(3) :
        Dipole               -0.0005 Ry au,         -0.0013 Debye
        Dipole field         -0.0000 Ry au

        Potential amp.        0.0000 Ry
        Total length         34.6232 bohr

[...]

     Starting wfc are  328 randomized atomic wfcs

     Self-consistent Calculation

     iteration #  1     ecut=    44.10 Ry     beta=0.10
     Davidson diagonalization with overlap
     ethr =  1.00E-02,  avg # of iterations =  6.8

[...]

     Magnetic moment per site:
     atom:    1    charge:    3.1925    magn:    1.4065    constr:    0.0000
     atom:    2    charge:    3.2407    magn:    1.3602    constr:    0.0000
     atom:    3    charge:    3.2407    magn:    1.3620    constr:    0.0000
     atom:    4    charge:    3.2095    magn:    1.3868    constr:    0.0000
     atom:    5    charge:    3.1919    magn:    1.4066    constr:    0.0000
     atom:    6    charge:    3.2407    magn:    1.3602    constr:    0.0000
     atom:    7    charge:    3.2407    magn:    1.3608    constr:    0.0000
     atom:    8    charge:    3.2096    magn:    1.3868    constr:    0.0000
     atom:    9    charge:    3.1920    magn:    1.4067    constr:    0.0000
     atom:   10    charge:    3.2410    magn:    1.3608    constr:    0.0000
     atom:   11    charge:    3.2407    magn:    1.3608    constr:    0.0000
     atom:   12    charge:    3.1919    magn:    1.4073    constr:    0.0000
     atom:   13    charge:    3.1919    magn:    1.4066    constr:    0.0000
     atom:   14    charge:    3.2409    magn:    1.3604    constr:    0.0000
     atom:   15    charge:    3.2407    magn:    1.3608    constr:    0.0000
     atom:   16    charge:    3.1916    magn:    1.4063    constr:    0.0000
     atom:   17    charge:    3.1925    magn:    1.4064    constr:    0.0000
     atom:   18    charge:    3.2408    magn:    1.3603    constr:    0.0000
     atom:   19    charge:    3.2407    magn:    1.3620    constr:    0.0000
     atom:   20    charge:    3.1919    magn:    1.4063    constr:    0.0000
     atom:   21    charge:    3.1919    magn:    1.4066    constr:    0.0000
     atom:   22    charge:    3.2408    magn:    1.3603    constr:    0.0000
     atom:   23    charge:    3.2407    magn:    1.3608    constr:    0.0000
     atom:   24    charge:    3.1919    magn:    1.4063    constr:    0.0000
     atom:   25    charge:    3.1919    magn:    1.4063    constr:    0.0000
     atom:   26    charge:    3.2408    magn:    1.3603    constr:    0.0000
     atom:   27    charge:    3.2408    magn:    1.3604    constr:    0.0000
     atom:   28    charge:    3.1919    magn:    1.4063    constr:    0.0000
     atom:   29    charge:    3.1919    magn:    1.4063    constr:    0.0000
     atom:   30    charge:    3.2409    magn:    1.3604    constr:    0.0000
     atom:   31    charge:    3.2408    magn:    1.3604    constr:    0.0000
     atom:   32    charge:    3.1916    magn:    1.4063    constr:    0.0000
     atom:   33    charge:    3.1921    magn:    1.4059    constr:    0.0000
     atom:   34    charge:    3.2408    magn:    1.3603    constr:    0.0000
     atom:   35    charge:    3.2408    magn:    1.3604    constr:    0.0000
     atom:   36    charge:    3.1919    magn:    1.4063    constr:    0.0000
     atom:   37    charge:    0.5629    magn:    0.5360    constr:    0.0000

[...]
    -2.8735  -2.8480  -2.8455  -2.8254  -2.7812  -2.7651  -2.7551  -2.6330
    -2.6048  -2.5978  -2.5080  -2.5079  -2.5034  -2.4910  -2.4906  -2.4770
    -2.4748  -2.4697  -2.4415  -2.4373  -2.4250  -2.4190  -2.4106  -2.3983
    -2.3961  -2.3369  -2.3300  -2.2931  -2.2630  -2.2606  -2.2509  -2.1671
    -2.1669  -2.1564  -2.1547  -2.1531  -2.1414  -2.1292  -2.1141  -2.1107
    -2.1035  -2.1023  -2.0991  -2.0638  -2.0614  -2.0099  -1.9924  -1.9764
    -1.9519  -1.9111  -1.8965  -1.8346  -1.8149  -1.8125  -1.7770  -1.7694
    -1.7664  -1.7393  -1.7304  -1.6788  -1.6045  -1.5812  -1.5806  -1.5751
    -1.5597  -1.5202  -1.5071  -1.4911  -1.4841  -1.4832  -1.4492  -1.4424
    -1.4421  -1.4409  -1.3841  -1.3694  -1.3501  -1.3485  -1.3408  -1.3408
    -1.3240  -1.2991  -1.2964  -1.2853  -1.2821  -1.2572  -1.2451  -1.2402
    -1.2376  -1.2323  -1.2226  -1.2217  -1.2151  -1.2147  -1.2049  -1.1992
    -1.1424  -1.1255  -1.1019  -1.0677  -1.0622  -1.0558  -1.0357  -1.0357
    -0.9783  -0.9730  -0.9400  -0.9347  -0.9194  -0.9003  -0.8721  -0.8314
    -0.8289  -0.8238  -0.8194  -0.8171  -0.7995  -0.7966  -0.7870  -0.7746
    -0.7456  -0.7365  -0.7191  -0.7177  -0.7043  -0.6858  -0.6737  -0.6636
    -0.6611  -0.6598  -0.6148  -0.6133  -0.5946  -0.5903  -0.5486  -0.5438
    -0.5248  -0.5205  -0.5127  -0.4902  -0.4414  -0.4221  -0.4190  -0.4061
    -0.3094  -0.3032  -0.3030   0.1561   0.2465   0.2851   0.7776   0.8510
     0.9503   1.2217   1.3917   1.4347   1.7179   1.9592   2.1399   2.5121
     2.7633   2.7635   2.7768   2.8627   2.9024   2.9097   3.0205   3.0685
     3.1425   3.5928   3.8703   3.8944   4.2720   4.4149   4.4458   4.7882
     5.1823   5.1828   5.4216   5.4748   5.4790   5.4798   5.4920   5.5523
     5.5843   5.7443   6.0778   6.0808   6.1357   6.2405   6.3245   6.3336
     6.6093   6.7211   6.8030   6.9567   7.0989   7.1924   7.3745   7.5736
     7.6078   7.6316   7.8269   7.8445   7.8531   7.8552   7.8562   7.9364
     7.9425   7.9869   8.0313   8.0458   8.1063   8.2453   8.2696   8.3749

[...]

 ------ SPIN DOWN ----------

[...]

     the Fermi energy is     0.4669 ev

!    total energy              =   -2896.16223286 Ry
     Harris-Foulkes estimate   =   -2896.16223261 Ry
     estimated scf accuracy    <       0.00000069 Ry

     The total energy is the sum of the following terms:

     one-electron contribution =  -14682.72862565 Ry
     hartree contribution      =    7653.62164343 Ry
     xc contribution           =   -1330.18619221 Ry
     ewald contribution        =    5463.26109013 Ry
     electric field correction =       0.00020605 Ry
     smearing contrib. (-TS)   =      -0.13035461 Ry

[...]

     convergence has been achieved in  86 iterations

     Forces acting on atoms (Ry/au):

     negative rho (up, down):  3.909E-03 1.315E-02
     atom    1 type  1   force =    -0.00005982   -0.00004633    0.03455779
     atom    2 type  1   force =    -0.00100615    0.00152917   -0.01905118
     atom    3 type  1   force =    -0.00120056   -0.00084383    0.00390459
     atom    4 type  1   force =    -0.02038962    0.02891983    0.06218023
     atom    5 type  1   force =     0.00019961    0.00022902    0.03314646
     atom    6 type  1   force =     0.00110939   -0.00145591   -0.01905063
     atom    7 type  1   force =     0.00001966    0.00170018    0.01131295
     atom    8 type  1   force =     0.02047080   -0.02885922    0.06218016
     atom    9 type  1   force =     0.00027879    0.00012120    0.03314578
     atom   10 type  1   force =     0.00005146    0.00003615   -0.01280359
     atom   11 type  1   force =     0.00161679   -0.00054759    0.01132051
     atom   12 type  1   force =     0.00004051    0.00002843   -0.03383777
     atom   13 type  1   force =    -0.00016202   -0.00020280    0.03317005
     atom   14 type  1   force =     0.00002567    0.00002150   -0.01378648
     atom   15 type  1   force =     0.00003203   -0.00166193    0.01130071
     atom   16 type  1   force =     0.00076135    0.00053084   -0.03269851
     atom   17 type  1   force =     0.00009691    0.00007200    0.03458289
     atom   18 type  1   force =     0.00031876    0.00000817   -0.01319695
     atom   19 type  1   force =     0.00125206    0.00088039    0.00389655
     atom   20 type  1   force =     0.00131346    0.00018177   -0.03206855
     atom   21 type  1   force =    -0.00024166   -0.00009467    0.03316993
     atom   22 type  1   force =     0.00011176    0.00029515   -0.01318779
     atom   23 type  1   force =    -0.00156309    0.00058314    0.01130852
     atom   24 type  1   force =     0.00061395    0.00116116   -0.03204273
     atom   25 type  1   force =    -0.00020692    0.00020828    0.03194958
     atom   26 type  1   force =    -0.00036986   -0.00004468   -0.01321982
     atom   27 type  1   force =     0.00041748   -0.00070876    0.01436245
     atom   28 type  1   force =    -0.00135278   -0.00020806   -0.03205369
     atom   29 type  1   force =     0.00013293   -0.00026066    0.03194917
     atom   30 type  1   force =    -0.00007735   -0.00005818   -0.01380774
     atom   31 type  1   force =    -0.00052372    0.00063268    0.01436215
     atom   32 type  1   force =    -0.00080097   -0.00055943   -0.03268018
     atom   33 type  1   force =    -0.00003765   -0.00002666    0.03261508
     atom   34 type  1   force =    -0.00016288   -0.00033163   -0.01321117
     atom   35 type  1   force =    -0.00005503   -0.00003856    0.01338579
     atom   36 type  1   force =    -0.00065203   -0.00118932   -0.03202833
     atom   37 type  2   force =    -0.00000122   -0.00000081   -0.15907624

     Total force =     0.236562     Total SCF correction =     0.001862
 !ASE

     Writing output data file calc.save
     Check: negative starting charge=(component1):   -0.003732
     NEW-OLD atomic charge density approx. for the potential
     Check: negative starting charge=(component1):   -0.004161

[...]

     iteration #  1     ecut=    44.10 Ry     beta=0.10
     Davidson diagonalization with overlap
     c_bands:  2 eigenvalues not converged
     c_bands:  1 eigenvalues not converged
     c_bands:  2 eigenvalues not converged
     ethr =  2.95E-10,  avg # of iterations = 18.3

[...]

     iteration # 41     ecut=    44.10 Ry     beta=0.10
     Davidson diagonalization with overlap
     c_bands:  1 eigenvalues not converged
     ethr =  1.15E-07,  avg # of iterations =  7.7

[...]

     Writing output data file calc.save
     Check: negative starting charge=(component1):   -0.004161
     NEW-OLD atomic charge density approx. for the potential
     Check: negative starting charge=(component1):   -0.004160

[...]

     Self-consistent Calculation

[...]

     total energy              =   -2896.29188216 Ry
     Harris-Foulkes estimate   =   -2896.29186302 Ry
     estimated scf accuracy    <       0.00000093 Ry

[...]

     iteration # 18     ecut=    44.10 Ry     beta=0.10
     Davidson diagonalization with overlap
     ethr =  2.83E-10,  avg # of iterations =  1.5

     negative rho (up, down):  4.179E-03 1.328E-02

[...]

     Adding external electric field

     Computed dipole along edir(3) :
        Dipole               -0.3308 Ry au,         -0.8407 Debye
        Dipole field         -0.0004 Ry au

        Potential amp.        0.0279 Ry
        Total length         34.6232 bohr

     Magnetic moment per site:
     atom:    1    charge:    3.2191    magn:    1.0201    constr:    0.0000
     atom:    2    charge:    3.2008    magn:    0.9076    constr:    0.0000
     atom:    3    charge:    3.1992    magn:    0.9521    constr:    0.0000
     atom:    4    charge:    3.0601    magn:    0.5197    constr:    0.0000
     atom:    5    charge:    3.2197    magn:    1.0143    constr:    0.0000
     atom:    6    charge:    3.2008    magn:    0.9076    constr:    0.0000
     atom:    7    charge:    3.1971    magn:    0.9171    constr:    0.0000
     atom:    8    charge:    3.0600    magn:    0.5198    constr:    0.0000
     atom:    9    charge:    3.2197    magn:    1.0143    constr:    0.0000
     atom:   10    charge:    3.2007    magn:    0.9439    constr:    0.0000
     atom:   11    charge:    3.1971    magn:    0.9171    constr:    0.0000
     atom:   12    charge:    3.0285    magn:    0.9347    constr:    0.0000
     atom:   13    charge:    3.2197    magn:    1.0142    constr:    0.0000
     atom:   14    charge:    3.2012    magn:    0.9393    constr:    0.0000
     atom:   15    charge:    3.1971    magn:    0.9170    constr:    0.0000
     atom:   16    charge:    2.9545    magn:    0.9267    constr:    0.0000
     atom:   17    charge:    3.2192    magn:    1.0200    constr:    0.0000
     atom:   18    charge:    3.2012    magn:    0.9435    constr:    0.0000
     atom:   19    charge:    3.1993    magn:    0.9521    constr:    0.0000
     atom:   20    charge:    2.9510    magn:    0.9271    constr:    0.0000
     atom:   21    charge:    3.2198    magn:    1.0142    constr:    0.0000
     atom:   22    charge:    3.2012    magn:    0.9435    constr:    0.0000
     atom:   23    charge:    3.1971    magn:    0.9170    constr:    0.0000
     atom:   24    charge:    2.9507    magn:    0.9270    constr:    0.0000
     atom:   25    charge:    3.2196    magn:    1.0128    constr:    0.0000
     atom:   26    charge:    3.2011    magn:    0.9437    constr:    0.0000
     atom:   27    charge:    3.2001    magn:    0.9269    constr:    0.0000
     atom:   28    charge:    2.9507    magn:    0.9271    constr:    0.0000
     atom:   29    charge:    3.2196    magn:    1.0128    constr:    0.0000
     atom:   30    charge:    3.2011    magn:    0.9395    constr:    0.0000
     atom:   31    charge:    3.2001    magn:    0.9269    constr:    0.0000
     atom:   32    charge:    2.9539    magn:    0.9266    constr:    0.0000
     atom:   33    charge:    3.2198    magn:    1.0106    constr:    0.0000
     atom:   34    charge:    3.2011    magn:    0.9436    constr:    0.0000
     atom:   35    charge:    3.2006    magn:    0.9195    constr:    0.0000
     atom:   36    charge:    2.9505    magn:    0.9270    constr:    0.0000
     atom:   37    charge:    0.3286    magn:   -0.0236    constr:    0.0000

     End of self-consistent calculation

 ------ SPIN UP ------------

[...]

 ------ SPIN DOWN ----------

[...]

          k = 0.0254-0.0359 0.0000 ( 51064 PWs)   bands (ev):

    -9.9270  -7.0328  -6.1955  -5.8095  -5.7341  -5.0349  -5.0201  -4.2980
    -3.8437  -3.7053  -3.5571  -3.4924  -3.3713  -3.3062  -3.2382  -3.2367
    -3.1106  -3.0667  -2.9550  -2.8704  -2.8464  -2.7821  -2.7474  -2.7386
    -2.6716  -2.6346  -2.5396  -2.5097  -2.4004  -2.3604  -2.3355  -2.3072
    -2.2421  -2.2077  -2.1605  -2.1553  -2.1475  -2.1182  -2.0988  -2.0560
    -1.9475  -1.8872  -1.8695  -1.7741  -1.7699  -1.7363  -1.7039  -1.6962
    -1.6818  -1.6555  -1.6223  -1.6158  -1.5661  -1.5115  -1.3984  -1.3560
    -1.3380  -1.2524  -1.2450  -1.2155  -1.1764  -1.1669  -1.1480  -1.1429
    -1.1144  -1.0971  -1.0626  -1.0438  -1.0258  -1.0167  -1.0009  -0.9977
    -0.9912  -0.9577  -0.9401  -0.9054  -0.8613  -0.8105  -0.8009  -0.7274
    -0.7106  -0.6877  -0.6834  -0.6499  -0.6295  -0.6052  -0.5642  -0.5535
    -0.5353  -0.4966  -0.4686  -0.4595  -0.4409  -0.3988  -0.3916  -0.3567
    -0.3460  -0.3354  -0.3042  -0.2966  -0.2921  -0.2349  -0.2258  -0.2029
    -0.1875  -0.1635  -0.1597  -0.1409  -0.0996  -0.0692  -0.0622  -0.0399
    -0.0349  -0.0094   0.0064   0.0517   0.0781   0.0925   0.1655   0.1857
     0.1978   0.2435   0.2539   0.2904   0.3141   0.3177   0.3199   0.3452
     0.3721   0.3959   0.4248   0.4392   0.4441   0.4903   0.5320   0.5545
     0.5772   0.5835   0.6163   0.6639   0.6806   0.7316   0.7378   0.7660
     0.7820   0.8188   0.8397   0.8718   0.8858   0.9131   0.9164   0.9244
     0.9453   0.9540   0.9609   0.9821   1.0015   1.0420   1.0577   1.0648
     1.0902   1.0997   1.1074   1.1128   1.1152   1.1785   1.1905   1.2107
     1.2274   1.2435   1.2495   1.2602   1.2663   1.2795   1.2910   1.2982
     1.3313   1.3438   1.3569   1.3841   1.4038   1.4295   1.4712   1.4982
     1.5082   1.5204   1.5308   1.5344   1.5713   1.5860   1.6221   1.6248
     1.7214   1.8424   1.9184   1.9406   1.9936   1.9955   2.1183   2.1493
     2.1930   2.3014   2.4981   2.7326   2.7495   2.9030   3.0344   3.1852
     3.1942   3.4952   3.5109   3.7186   3.7579   3.7624   3.8280   3.9981
     4.1216   4.1324   4.2309   4.2962   4.4643   4.6047   4.7518   4.9222
     5.1254   5.2950   5.3000   5.5067   5.5421   5.6145   5.6259   5.6702
     5.6924   5.8922   6.1649   6.3119   6.3735   6.4354   6.5398   6.5401
     6.6537   6.9551   6.9739   7.0252   7.0393   7.0695   7.1790   7.3072
     7.5861   7.5951   7.6601   7.6757   7.7967   7.8357   7.8418   7.9724
     8.3266   8.3607   8.4219   8.4245   8.5293   8.5813   8.6442   8.7292

     the Fermi energy is     0.4988 ev

!    total energy              =   -2896.29199486 Ry
     Harris-Foulkes estimate   =   -2896.29188355 Ry
     estimated scf accuracy    <       0.00000059 Ry

     The total energy is the sum of the following terms:

     one-electron contribution =  -15065.58255722 Ry
     hartree contribution      =    7845.08466402 Ry
     xc contribution           =   -1330.86728823 Ry
     ewald contribution        =    5655.19482322 Ry
     electric field correction =       0.00013330 Ry
     smearing contrib. (-TS)   =      -0.12176996 Ry

     total magnetization       =    61.42 Bohr mag/cell
     absolute magnetization    =    68.16 Bohr mag/cell

     convergence has been achieved in  18 iterations

     Forces acting on atoms (Ry/au):

     negative rho (up, down):  4.179E-03 1.328E-02
     atom    1 type  1   force =     0.00237277    0.00167263    0.03206157
     atom    2 type  1   force =    -0.00038036    0.00022873   -0.03185845
     atom    3 type  1   force =    -0.00049632   -0.00037280   -0.00004891
     atom    4 type  1   force =     0.00005068   -0.00026161   -0.00063799
     atom    5 type  1   force =     0.00100863    0.00031954    0.02980748
     atom    6 type  1   force =     0.00008808   -0.00043577   -0.03186739
     atom    7 type  1   force =    -0.00052592   -0.00075629    0.00044589
     atom    8 type  1   force =    -0.00020845    0.00009220   -0.00060572
     atom    9 type  1   force =     0.00063513    0.00084727    0.02980426
     atom   10 type  1   force =    -0.00014460   -0.00009970   -0.02962537
     atom   11 type  1   force =    -0.00088759   -0.00022897    0.00045100
     atom   12 type  1   force =    -0.00011645   -0.00005412   -0.00142713
     atom   13 type  1   force =    -0.00111337   -0.00039133    0.02973587
     atom   14 type  1   force =     0.00146804    0.00104751   -0.03149696
     atom   15 type  1   force =     0.00035970    0.00066254    0.00053213
     atom   16 type  1   force =     0.00071762    0.00052029    0.00055572
     atom   17 type  1   force =    -0.00246558   -0.00174789    0.03198294
     atom   18 type  1   force =    -0.00109361   -0.00013252   -0.02999673
     atom   19 type  1   force =     0.00036029    0.00022784    0.00001649
     atom   20 type  1   force =     0.00089936    0.00025311    0.00062650
     atom   21 type  1   force =    -0.00073843   -0.00091619    0.02972347
     atom   22 type  1   force =    -0.00048968   -0.00099703   -0.03001411
     atom   23 type  1   force =     0.00072586    0.00013142    0.00053461
     atom   24 type  1   force =     0.00053038    0.00076376    0.00065610
     atom   25 type  1   force =     0.00018676   -0.00002740    0.02896076
     atom   26 type  1   force =     0.00124271    0.00023376   -0.02994066
     atom   27 type  1   force =     0.00013210    0.00011879    0.00105713
     atom   28 type  1   force =    -0.00080240   -0.00019523    0.00054267
     atom   29 type  1   force =     0.00002273    0.00017203    0.02895854
     atom   30 type  1   force =    -0.00132690   -0.00093312   -0.03145604
     atom   31 type  1   force =     0.00015037    0.00008871    0.00104949
     atom   32 type  1   force =    -0.00061328   -0.00043861    0.00049067
     atom   33 type  1   force =     0.00010518    0.00007173    0.02965765
     atom   34 type  1   force =     0.00064277    0.00109971   -0.02993939
     atom   35 type  1   force =     0.00015265    0.00010294    0.00145817
     atom   36 type  1   force =    -0.00042662   -0.00068562    0.00055565
     atom   37 type  2   force =    -0.00002226    0.00001971   -0.00074990

     Total force =     0.129185     Total SCF correction =     0.002560
 !ASE

     Writing output data file calc.save

     General routines

     Parallel routines

   This run was terminated on:  14:27:51  24Feb2018

   JOB DONE.