     Program PWSCF v.5.1rc2 (svn rev. ) starts on 22Feb2018 at  7:38:15

     Current dimensions of program PWSCF are:
     Max number of different atomic species (ntypx) = 10
     Max number of k-points (npk) =  40000
     Max angular momentum in pseudopotentials (lmaxx) =  3
     Presently no symmetry can be used with electric field

     IMPORTANT: XC functional enforced from input :
     Exchange-correlation      = RPBE ( 1  4 28  4 0)
     Any further DFT definition will be discarded
     Please, verify this is what you really want

               file Ni.UPF: wavefunction(s)  3D renormalized

     Subspace diagonalization in iterative solution of the eigenvalue problem:
     a serial algorithm will be used

     Generating pointlists ...
     new r_m :   0.4125 (alat units)  0.7795 (a.u.) for type    1
     new r_m :   0.4125 (alat units)  0.7795 (a.u.) for type    2

     bravais-lattice index     =            0
     lattice parameter (alat)  =       1.8897  a.u.
     unit-cell volume          =   10207.8337 (a.u.)^3
     number of atoms/cell      =           37
     number of atomic types    =            2
     number of electrons       =       364.00
     number of Kohn-Sham states=          282
     kinetic-energy cutoff     =      44.0992  Ry
     charge density cutoff     =     440.9919  Ry
     convergence threshold     =      7.3E-07
     mixing beta               =       0.1000
     number of iterations used =           10  plain     mixing
     Exchange-correlation      = RPBE ( 1  4 28  4 0)
     nstep                     =           50

     celldm(1)=   1.889726  celldm(2)=   0.000000  celldm(3)=   0.000000
     celldm(4)=   0.000000  celldm(5)=   0.000000  celldm(6)=   0.000000

     crystal axes: (cart. coord. in units of alat)
               a(1) = (  13.073539   0.000000   0.000000 )
               a(2) = (  -4.357846   6.162925   0.000000 )
               a(3) = (   0.000000   0.000000  18.774005 )

     reciprocal axes: (cart. coord. in units 2 pi/alat)
               b(1) = (  0.076490  0.054087  0.000000 )
               b(2) = (  0.000000  0.162261  0.000000 )
               b(3) = (  0.000000  0.000000  0.053265 )

     PseudoPot. # 1 for Ni read from file:
     /home/alatimer/bin/psp/esp_psp_w_gbrvRu/Ni.UPF
     MD5 check sum: 8b2449ee0060d9c33484ccd47bb60870
     Pseudo is Ultrasoft + core correction, Zval = 10.0
     Generated using "atomic" code by A. Dal Corso  v.5.0.2 svn rev. 9415
     Using radial grid of 1195 points,  6 beta functions with:
                l(1) =   0
                l(2) =   0
                l(3) =   1
                l(4) =   1
                l(5) =   2
                l(6) =   2
     Q(r) pseudized with 0 coefficients

     PseudoPot. # 2 for  C read from file:
     /home/alatimer/bin/psp/esp_psp_w_gbrvRu/C.UPF
     MD5 check sum: ab446d787031eba755f1d5ee46644bb0
     Pseudo is Ultrasoft + core correction, Zval =  4.0
     Generated using "atomic" code by A. Dal Corso  v.5.0.2 svn rev. 9415
     Using radial grid of 1073 points,  4 beta functions with:
                l(1) =   0
                l(2) =   0
                l(3) =   1
                l(4) =   1
     Q(r) pseudized with 0 coefficients

     atomic species   valence    mass     pseudopotential
        Ni1           10.00    58.69340     Ni( 1.00)
        C1             4.00    12.01100      C( 1.00)

     Starting magnetic structure
     atomic species   magnetization
        Ni1          0.300
        C1           0.750

     No symmetry found

   Cartesian axes

     site n.     atom                  positions (alat units)
         1           Ni1 tau(   1) = (   0.0000000   0.0000000   7.5000000  )
         2           Ni1 tau(   2) = (   2.1789231   0.0000000   8.7580018  )
         3           Ni1 tau(   3) = (   0.0000000   0.0000000  10.0160037  )
         4           Ni1 tau(   4) = (   2.1789231   0.0000000  11.2740055  )
         5           Ni1 tau(   5) = (  -1.4526154   2.0543084   7.5000000  )
         6           Ni1 tau(   6) = (   0.7263077   2.0543084   8.7580018  )
         7           Ni1 tau(   7) = (  -1.4526154   2.0543084  10.0160037  )
         8           Ni1 tau(   8) = (   0.7263077   2.0543084  11.2740055  )
         9           Ni1 tau(   9) = (  -2.9052308   4.1086168   7.5000000  )
        10           Ni1 tau(  10) = (  -0.7263077   4.1086168   8.7580018  )
        11           Ni1 tau(  11) = (  -2.9052308   4.1086168  10.0160037  )
        12           Ni1 tau(  12) = (  -0.7263077   4.1086168  11.2740055  )
        13           Ni1 tau(  13) = (   4.3578462   0.0000000   7.5000000  )
        14           Ni1 tau(  14) = (   6.5367693   0.0000000   8.7580018  )
        15           Ni1 tau(  15) = (   4.3578462   0.0000000  10.0160037  )
        16           Ni1 tau(  16) = (   6.5367693   0.0000000  11.2740055  )
        17           Ni1 tau(  17) = (   2.9052308   2.0543084   7.5000000  )
        18           Ni1 tau(  18) = (   5.0841539   2.0543084   8.7580018  )
        19           Ni1 tau(  19) = (   2.9052308   2.0543084  10.0160037  )
        20           Ni1 tau(  20) = (   5.0841539   2.0543084  11.2740055  )
        21           Ni1 tau(  21) = (   1.4526154   4.1086168   7.5000000  )
        22           Ni1 tau(  22) = (   3.6315385   4.1086168   8.7580018  )
        23           Ni1 tau(  23) = (   1.4526154   4.1086168  10.0160037  )
        24           Ni1 tau(  24) = (   3.6315385   4.1086168  11.2740055  )
        25           Ni1 tau(  25) = (   8.7156924   0.0000000   7.5000000  )
        26           Ni1 tau(  26) = (  10.8946154   0.0000000   8.7580018  )
        27           Ni1 tau(  27) = (   8.7156924   0.0000000  10.0160037  )
        28           Ni1 tau(  28) = (  10.8946154   0.0000000  11.2740055  )
        29           Ni1 tau(  29) = (   7.2630770   2.0543084   7.5000000  )
        30           Ni1 tau(  30) = (   9.4420001   2.0543084   8.7580018  )
        31           Ni1 tau(  31) = (   7.2630770   2.0543084  10.0160037  )
        32           Ni1 tau(  32) = (   9.4420001   2.0543084  11.2740055  )
        33           Ni1 tau(  33) = (   5.8104616   4.1086168   7.5000000  )
        34           Ni1 tau(  34) = (   7.9893847   4.1086168   8.7580018  )
        35           Ni1 tau(  35) = (   5.8104616   4.1086168  10.0160037  )
        36           Ni1 tau(  36) = (   7.9893847   4.1086168  11.2740055  )
        37           C1  tau(  37) = (   1.4459851   1.1346310  12.2416098  )

     number of k points=    10  Fermi-Dirac smearing, width (Ry)=  0.0073
                       cart. coord. in units 2pi/alat
        k(    1) = (   0.0000000   0.0000000   0.0000000), wk =   0.1111111
        k(    2) = (   0.0000000   0.0540869   0.0000000), wk =   0.2222222
        k(    3) = (   0.0254968   0.0180290   0.0000000), wk =   0.2222222
        k(    4) = (   0.0254968   0.0721158   0.0000000), wk =   0.2222222
        k(    5) = (   0.0254968  -0.0360579   0.0000000), wk =   0.2222222
        k(    6) = (   0.0000000   0.0000000   0.0000000), wk =   0.1111111
        k(    7) = (   0.0000000   0.0540869   0.0000000), wk =   0.2222222
        k(    8) = (   0.0254968   0.0180290   0.0000000), wk =   0.2222222
        k(    9) = (   0.0254968   0.0721158   0.0000000), wk =   0.2222222
        k(   10) = (   0.0254968  -0.0360579   0.0000000), wk =   0.2222222

     Largest allocated arrays     est. size (Mb)     dimensions
     Largest temporary arrays     est. size (Mb)     dimensions

     Initial potential from superposition of free atoms
     Check: negative starting charge=(component1):   -0.000513
     Check: negative starting charge=(component2):   -0.000280

     starting charge  363.99092, renormalised to  364.00000

     negative rho (up, down):  5.130E-04 2.797E-04

     Adding external electric field

     Computed dipole along edir(3) :
        Dipole               -0.0003 Ry au,         -0.0008 Debye
        Dipole field         -0.0000 Ry au

        Potential amp.        0.0000 Ry
        Total length         34.5908 bohr

[...]

     Starting wfc are  328 randomized atomic wfcs

     Self-consistent Calculation

     iteration #  1     ecut=    44.10 Ry     beta=0.10
     Davidson diagonalization with overlap
     ethr =  1.00E-02,  avg # of iterations =  6.9

[...]

     Magnetic moment per site:
     atom:    1    charge:    3.9528    magn:    1.1283    constr:    0.0000
     atom:    2    charge:    3.9781    magn:    1.1055    constr:    0.0000
     atom:    3    charge:    3.9784    magn:    1.1061    constr:    0.0000
     atom:    4    charge:    3.9783    magn:    1.1030    constr:    0.0000
     atom:    5    charge:    3.9529    magn:    1.1286    constr:    0.0000
     atom:    6    charge:    3.9783    magn:    1.1054    constr:    0.0000
     atom:    7    charge:    3.9780    magn:    1.1061    constr:    0.0000
     atom:    8    charge:    3.9820    magn:    1.1029    constr:    0.0000
     atom:    9    charge:    3.9528    magn:    1.1286    constr:    0.0000
     atom:   10    charge:    3.9747    magn:    1.1087    constr:    0.0000
     atom:   11    charge:    3.9777    magn:    1.1064    constr:    0.0000
     atom:   12    charge:    3.9585    magn:    1.1232    constr:    0.0000
     atom:   13    charge:    3.9529    magn:    1.1286    constr:    0.0000
     atom:   14    charge:    3.9745    magn:    1.1091    constr:    0.0000
     atom:   15    charge:    3.9776    magn:    1.1065    constr:    0.0000
     atom:   16    charge:    3.9528    magn:    1.1282    constr:    0.0000
     atom:   17    charge:    3.9528    magn:    1.1283    constr:    0.0000
     atom:   18    charge:    3.9745    magn:    1.1092    constr:    0.0000
     atom:   19    charge:    3.9784    magn:    1.1063    constr:    0.0000
     atom:   20    charge:    3.9528    magn:    1.1281    constr:    0.0000
     atom:   21    charge:    3.9529    magn:    1.1286    constr:    0.0000
     atom:   22    charge:    3.9745    magn:    1.1091    constr:    0.0000
     atom:   23    charge:    3.9780    magn:    1.1062    constr:    0.0000
     atom:   24    charge:    3.9528    magn:    1.1282    constr:    0.0000
     atom:   25    charge:    3.9515    magn:    1.1296    constr:    0.0000
     atom:   26    charge:    3.9745    magn:    1.1091    constr:    0.0000
     atom:   27    charge:    3.9745    magn:    1.1094    constr:    0.0000
     atom:   28    charge:    3.9527    magn:    1.1282    constr:    0.0000
     atom:   29    charge:    3.9511    magn:    1.1299    constr:    0.0000
     atom:   30    charge:    3.9745    magn:    1.1090    constr:    0.0000
     atom:   31    charge:    3.9746    magn:    1.1094    constr:    0.0000
     atom:   32    charge:    3.9528    magn:    1.1282    constr:    0.0000
     atom:   33    charge:    3.9521    magn:    1.1289    constr:    0.0000
     atom:   34    charge:    3.9745    magn:    1.1092    constr:    0.0000
     atom:   35    charge:    3.9743    magn:    1.1091    constr:    0.0000
     atom:   36    charge:    3.9528    magn:    1.1282    constr:    0.0000
[...]
    -2.8961  -2.8860  -2.8646  -2.8337  -2.7959  -2.7863  -2.7802  -2.7658
    -2.7624  -2.7483  -2.7074  -2.6078  -2.5312  -2.4959  -2.4478  -2.4403
    -2.4082  -2.4048  -2.3990  -2.3911  -2.3841  -2.3738  -2.3032  -2.2683
    -2.2364  -2.2193  -2.1275  -2.0705  -2.0570  -2.0507  -2.0424  -2.0390
    -2.0262  -2.0074  -1.9859  -1.9809  -1.9528  -1.9409  -1.9089  -1.9047
    -1.8933  -1.8863  -1.8795  -1.8301  -1.7935  -1.7860  -1.7732  -1.7723
    -1.7631  -1.7295  -1.6790  -1.6572  -1.6433  -1.6413  -1.6057  -1.5997
    -1.5970  -1.5918  -1.5912  -1.5754  -1.5587  -1.5558  -1.5449  -1.4901
    -1.4656  -1.4626  -1.4283  -1.4132  -1.3362  -1.2679  -1.2618  -1.2608
    -1.2564  -1.2407  -1.2346  -1.2077  -1.2001  -1.1775  -1.1658  -1.1369
    -1.1343  -1.0912  -1.0807  -1.0712  -1.0568  -1.0535  -1.0326  -1.0226
    -1.0210  -0.9942  -0.9761  -0.9724  -0.9521  -0.9310  -0.9017  -0.8711
    -0.8656  -0.8269  -0.8157  -0.7989  -0.7972  -0.7795  -0.7736  -0.7674
    -0.7523  -0.7284  -0.7177  -0.6853  -0.6779  -0.6723  -0.6631  -0.6577
    -0.6041  -0.5919  -0.5893  -0.5845  -0.5738  -0.5579  -0.5501  -0.5333
    -0.5180  -0.4823  -0.4621  -0.4582  -0.4504  -0.4414  -0.4303  -0.4143
    -0.4120  -0.4079  -0.4022  -0.3986  -0.3692  -0.3689  -0.3613  -0.3604
    -0.3511  -0.3443  -0.3408  -0.3151  -0.3123  -0.3096  -0.2953  -0.2891
    -0.2723  -0.2555  -0.2389  -0.2298  -0.2262  -0.2096  -0.1978  -0.1841
    -0.1672  -0.1631  -0.1533  -0.1483  -0.1231  -0.0852  -0.0812  -0.0588
    -0.0560  -0.0429  -0.0245   0.3462   0.5376   0.6014   1.0401   1.1014
     1.3077   1.5125   1.5420   1.5927   1.9318   2.1372   2.5279   2.6870
     2.9017   2.9109   2.9117   2.9398   3.0380   3.0428   3.3217   3.5661
     3.6595   3.7682   4.0323   4.0476   4.3407   4.6555   4.6812   5.0063
     5.1716   5.2419   5.5163   5.5580   5.5680   5.5727   5.5859   5.6405
     5.8034   5.8546   6.1585   6.1968   6.2278   6.4679   6.5051   6.5128
     6.7197   6.8071   6.8323   6.9747   7.0466   7.3298   7.4593   7.6786
     7.6873   7.7288   7.7742   7.7843   7.8154   7.8709   7.9438   8.0413
     8.0939   8.1442   8.1598   8.1722   8.2339   8.2904   8.3176   8.5101
     8.5640   8.5963   8.6079   8.6559   8.6588   8.7633   8.8515   8.9905
     9.0985   9.1114   9.1636   9.2497   9.3334   9.3735   9.5208   9.5325
     9.5562   9.6117

[...]

 ------ SPIN DOWN ----------

[...]

     the Fermi energy is     0.4277 ev

!    total energy              =   -3633.89971120 Ry
     Harris-Foulkes estimate   =   -3633.89971205 Ry
     estimated scf accuracy    <       0.00000068 Ry

     The total energy is the sum of the following terms:

     one-electron contribution =  -18766.03164620 Ry
     hartree contribution      =    9760.96762189 Ry
     xc contribution           =   -1508.88341236 Ry
     ewald contribution        =    6880.23077593 Ry
     electric field correction =       0.00005881 Ry
     smearing contrib. (-TS)   =      -0.18310926 Ry

[...]

     convergence has been achieved in  73 iterations

     Forces acting on atoms (Ry/au):

     negative rho (up, down):  3.783E-04 2.897E-04
     atom    1 type  1   force =     0.00031389    0.00024850    0.01910346
     atom    2 type  1   force =    -0.00027245    0.00016350   -0.01575549
     atom    3 type  1   force =    -0.01232768   -0.00956257   -0.00167738
     atom    4 type  1   force =     0.03426044   -0.05067107   -0.03422401
     atom    5 type  1   force =     0.00065805    0.00000732    0.01939082
     atom    6 type  1   force =     0.00024552   -0.00064720   -0.01700539
     atom    7 type  1   force =    -0.00636192    0.00066146    0.00831783
     atom    8 type  1   force =    -0.12943690    0.16770969   -0.16132570
     atom    9 type  1   force =     0.00028954    0.00063859    0.01941339
     atom   10 type  1   force =     0.00006477   -0.00017868   -0.00866450
     atom   11 type  1   force =    -0.00071059   -0.00477238    0.00881660
     atom   12 type  1   force =    -0.00030122    0.00029495   -0.01641274
     atom   13 type  1   force =    -0.00069569    0.00004321    0.01938081
     atom   14 type  1   force =     0.00038164    0.00048493   -0.01192359
     atom   15 type  1   force =     0.00468710   -0.00107759    0.00866822
     atom   16 type  1   force =    -0.00032922   -0.00006123   -0.01966175
     atom   17 type  1   force =    -0.00027895   -0.00020359    0.01903862
     atom   18 type  1   force =    -0.00097629   -0.00020756   -0.01046673
     atom   19 type  1   force =     0.01268943    0.00792462   -0.00039559
     atom   20 type  1   force =     0.00167103    0.00001138   -0.02039677
     atom   21 type  1   force =    -0.00016321   -0.00064796    0.01933696
     atom   22 type  1   force =    -0.00066269   -0.00105801   -0.01044433
     atom   23 type  1   force =     0.00119148    0.00614975    0.00825013
     atom   24 type  1   force =     0.00087226    0.00162506   -0.02045023
     atom   25 type  1   force =     0.00002279   -0.00008172    0.01973343
     atom   26 type  1   force =     0.00103857    0.00032367   -0.01039195
     atom   27 type  1   force =    -0.00014775    0.00025613    0.01113629
     atom   28 type  1   force =    -0.00147694   -0.00016198   -0.02045443
     atom   29 type  1   force =    -0.00014944    0.00012786    0.01984171
     atom   30 type  1   force =    -0.00082974   -0.00040624   -0.01217743
     atom   31 type  1   force =     0.00013244   -0.00018879    0.01111821
     atom   32 type  1   force =     0.00026055    0.00030389   -0.01964062
     atom   33 type  1   force =     0.00001907   -0.00010011    0.01934562
     atom   34 type  1   force =     0.00046229    0.00066098   -0.01043356
     atom   35 type  1   force =    -0.00000730   -0.00010270    0.01143685
     atom   36 type  1   force =    -0.00040672   -0.00127800   -0.02038327
     atom   37 type  2   force =     0.09627385   -0.11622812    0.19995655

     Total force =     0.383796     Total SCF correction =     0.002376
 !ASE

     Writing output data file calc.save
     Check: negative starting charge=(component1):   -0.000792
     NEW-OLD atomic charge density approx. for the potential
     Check: negative starting charge=(component1):   -0.000806

[...]

     Writing output data file calc.save
     Check: negative starting charge=(component1):   -0.000845
     NEW-OLD atomic charge density approx. for the potential
     Check: negative starting charge=(component1):   -0.000845

[...]

     Self-consistent Calculation

[...]

     total energy              =   -3633.95552352 Ry
     Harris-Foulkes estimate   =   -3633.95552359 Ry
     estimated scf accuracy    <       0.00000228 Ry

[...]

     iteration # 15     ecut=    44.10 Ry     beta=0.10
     Davidson diagonalization with overlap
     ethr =  2.12E-10,  avg # of iterations =  1.0

     negative rho (up, down):  4.141E-04 3.162E-04

[...]

     Adding external electric field

     Computed dipole along edir(3) :
        Dipole               -0.2790 Ry au,         -0.7091 Debye
        Dipole field         -0.0003 Ry au

        Potential amp.        0.0238 Ry
        Total length         34.5908 bohr

     Magnetic moment per site:
     atom:    1    charge:    3.9855    magn:    0.4399    constr:    0.0000
     atom:    2    charge:    3.9707    magn:    0.3467    constr:    0.0000
     atom:    3    charge:    3.9662    magn:    0.3736    constr:    0.0000
     atom:    4    charge:    3.9374    magn:    0.0553    constr:    0.0000
     atom:    5    charge:    3.9862    magn:    0.4302    constr:    0.0000
     atom:    6    charge:    3.9708    magn:    0.3467    constr:    0.0000
     atom:    7    charge:    3.9669    magn:    0.3465    constr:    0.0000
     atom:    8    charge:    3.9111    magn:    0.0544    constr:    0.0000
     atom:    9    charge:    3.9861    magn:    0.4303    constr:    0.0000
     atom:   10    charge:    3.9708    magn:    0.3852    constr:    0.0000
     atom:   11    charge:    3.9681    magn:    0.3475    constr:    0.0000
     atom:   12    charge:    3.9051    magn:    0.3526    constr:    0.0000
     atom:   13    charge:    3.9861    magn:    0.4308    constr:    0.0000
     atom:   14    charge:    3.9709    magn:    0.3959    constr:    0.0000
     atom:   15    charge:    3.9684    magn:    0.3490    constr:    0.0000
     atom:   16    charge:    3.8867    magn:    0.4145    constr:    0.0000
     atom:   17    charge:    3.9856    magn:    0.4400    constr:    0.0000
     atom:   18    charge:    3.9708    magn:    0.3922    constr:    0.0000
     atom:   19    charge:    3.9682    magn:    0.3724    constr:    0.0000
     atom:   20    charge:    3.8745    magn:    0.4151    constr:    0.0000
     atom:   21    charge:    3.9861    magn:    0.4307    constr:    0.0000
     atom:   22    charge:    3.9708    magn:    0.3921    constr:    0.0000
     atom:   23    charge:    3.9670    magn:    0.3480    constr:    0.0000
     atom:   24    charge:    3.8737    magn:    0.4149    constr:    0.0000
     atom:   25    charge:    3.9860    magn:    0.4297    constr:    0.0000
     atom:   26    charge:    3.9708    magn:    0.3923    constr:    0.0000
     atom:   27    charge:    3.9687    magn:    0.3871    constr:    0.0000
     atom:   28    charge:    3.8731    magn:    0.4144    constr:    0.0000
     atom:   29    charge:    3.9860    magn:    0.4297    constr:    0.0000
     atom:   30    charge:    3.9709    magn:    0.3959    constr:    0.0000
     atom:   31    charge:    3.9688    magn:    0.3870    constr:    0.0000
     atom:   32    charge:    3.8876    magn:    0.4140    constr:    0.0000
     atom:   33    charge:    3.9861    magn:    0.4290    constr:    0.0000
     atom:   34    charge:    3.9708    magn:    0.3923    constr:    0.0000
     atom:   35    charge:    3.9681    magn:    0.3886    constr:    0.0000
     atom:   36    charge:    3.8740    magn:    0.4145    constr:    0.0000
     atom:   37    charge:    0.5966    magn:   -0.0110    constr:    0.0000

     End of self-consistent calculation

 ------ SPIN UP ------------

[...]

 ------ SPIN DOWN ----------

[...]

          k = 0.0255-0.0361 0.0000 ( 50488 PWs)   bands (ev):

   -10.1906  -7.0958  -6.2625  -5.8799  -5.8069  -5.1106  -5.1022  -4.4166
    -4.0377  -3.8365  -3.7045  -3.6758  -3.6113  -3.5382  -3.4193  -3.3883
    -3.3411  -3.3191  -3.2382  -3.1803  -3.0812  -3.0380  -2.9843  -2.9675
    -2.9544  -2.9226  -2.8339  -2.8025  -2.7222  -2.6802  -2.6420  -2.6368
    -2.6306  -2.5673  -2.5083  -2.5007  -2.4814  -2.4511  -2.4345  -2.3793
    -2.2495  -2.2314  -2.1792  -2.1652  -2.1492  -2.1104  -2.1069  -2.0956
    -2.0686  -2.0628  -2.0263  -2.0220  -1.9761  -1.9021  -1.8755  -1.7813
    -1.7546  -1.7338  -1.7136  -1.6705  -1.6369  -1.6014  -1.6003  -1.5847
    -1.5487  -1.5274  -1.4991  -1.4846  -1.4821  -1.4753  -1.4604  -1.4563
    -1.4462  -1.4374  -1.4249  -1.3998  -1.3992  -1.3487  -1.3005  -1.2831
    -1.2393  -1.2153  -1.1834  -1.1422  -1.1362  -1.1288  -1.1157  -1.1102
    -1.0790  -1.0602  -1.0565  -1.0310  -1.0202  -0.9914  -0.9765  -0.9696
    -0.9507  -0.9188  -0.9064  -0.8820  -0.8640  -0.8565  -0.8322  -0.8251
    -0.8011  -0.7909  -0.7711  -0.7561  -0.7469  -0.7012  -0.6961  -0.6760
    -0.6262  -0.6170  -0.6120  -0.5786  -0.5570  -0.5216  -0.5002  -0.4776
    -0.4689  -0.4658  -0.4375  -0.4346  -0.3926  -0.3738  -0.3522  -0.3307
    -0.3249  -0.3072  -0.2938  -0.2533  -0.2250  -0.2247  -0.2028  -0.1647
    -0.1609  -0.1291  -0.0950  -0.0731  -0.0522  -0.0470  -0.0071   0.0327
     0.0373   0.0485   0.0655   0.0820   0.0834   0.0974   0.1100   0.1302
     0.1357   0.1488   0.1670   0.1805   0.1864   0.2030   0.2231   0.2411
     0.2701   0.2795   0.2888   0.2895   0.3226   0.3389   0.3515   0.3672
     0.3694   0.3769   0.4046   0.4126   0.4170   0.4217   0.4245   0.4376
     0.4530   0.4595   0.4760   0.4878   0.5216   0.5405   0.5692   0.6054
     0.6150   0.6152   0.6333   0.6405   0.6423   0.6685   0.7231   0.8554
     0.9999   1.0864   1.1481   1.1928   1.2343   1.2726   1.3591   1.4423
     1.5731   1.7678   1.9942   2.1334   2.1550   2.3002   2.4334   2.5929
     2.7475   3.0131   3.0633   3.0706   3.2977   3.3847   3.5064   3.5616
     3.6182   3.6549   3.9771   3.9991   4.2857   4.3968   4.4879   4.6617
     4.8120   5.1317   5.1657   5.2274   5.3528   5.5302   5.6077   5.8763
     5.8851   5.9734   6.1309   6.2630   6.4040   6.4713   6.6727   6.7268
     6.7550   6.7834   6.8130   6.8218   6.8339   6.9876   7.0470   7.1612
     7.2178   7.2604   7.4661   7.6640   7.7986   8.0031   8.0055   8.0237
     8.0726   8.1138   8.1574   8.3696   8.4316   8.4755   8.6285   8.6637
     8.7943   8.8053   8.8784   9.0314   9.1061   9.1893   9.2497   9.3848
     9.4552   9.5977   9.6849   9.7053   9.7868   9.8884   9.9126   9.9351
     9.9695   9.9917

     the Fermi energy is     0.3896 ev

!    total energy              =   -3633.95552318 Ry
     Harris-Foulkes estimate   =   -3633.95552443 Ry
     estimated scf accuracy    <       0.00000067 Ry

     The total energy is the sum of the following terms:

     one-electron contribution =  -18933.20906673 Ry
     hartree contribution      =    9843.97172972 Ry
     xc contribution           =   -1508.89427206 Ry
     ewald contribution        =    6964.35778770 Ry
     electric field correction =       0.00009582 Ry
     smearing contrib. (-TS)   =      -0.18179762 Ry

     total magnetization       =    22.60 Bohr mag/cell
     absolute magnetization    =    26.23 Bohr mag/cell

     convergence has been achieved in  15 iterations

     Forces acting on atoms (Ry/au):

     negative rho (up, down):  4.141E-04 3.162E-04
     atom    1 type  1   force =     0.00023897    0.00011073    0.01748256
     atom    2 type  1   force =    -0.00085865    0.00101418   -0.01666894
     atom    3 type  1   force =    -0.00054343   -0.00059578   -0.00005355
     atom    4 type  1   force =     0.00049048   -0.00068832    0.00057561
     atom    5 type  1   force =     0.00059531   -0.00027671    0.01927459
     atom    6 type  1   force =     0.00040009   -0.00073872   -0.01685365
     atom    7 type  1   force =    -0.00045356   -0.00024041    0.00007485
     atom    8 type  1   force =    -0.00028170    0.00035921   -0.00027040
     atom    9 type  1   force =    -0.00008700    0.00066295    0.01935401
     atom   10 type  1   force =    -0.00032087    0.00004727   -0.01601981
     atom   11 type  1   force =    -0.00025228   -0.00048935    0.00002981
     atom   12 type  1   force =     0.00006736   -0.00018570    0.00076701
     atom   13 type  1   force =    -0.00065613    0.00030448    0.01908326
     atom   14 type  1   force =     0.00121042    0.00116224   -0.02068000
     atom   15 type  1   force =     0.00046677   -0.00004192    0.00010586
     atom   16 type  1   force =     0.00022614    0.00018692   -0.00026088
     atom   17 type  1   force =    -0.00023164   -0.00020809    0.01788651
     atom   18 type  1   force =     0.00040132    0.00039154   -0.02001068
     atom   19 type  1   force =     0.00056089    0.00020584   -0.00007130
     atom   20 type  1   force =     0.00023773    0.00027611   -0.00006516
     atom   21 type  1   force =     0.00005356   -0.00072047    0.01900534
     atom   22 type  1   force =     0.00039744    0.00056229   -0.02003331
     atom   23 type  1   force =     0.00025950    0.00028336    0.00014187
     atom   24 type  1   force =     0.00031499    0.00017997   -0.00002546
     atom   25 type  1   force =     0.00010853   -0.00003323    0.01922886
     atom   26 type  1   force =    -0.00094655   -0.00008508   -0.02014568
     atom   27 type  1   force =     0.00008959    0.00016519    0.00008093
     atom   28 type  1   force =    -0.00014481   -0.00017934   -0.00005368
     atom   29 type  1   force =    -0.00000639    0.00014209    0.01921607
     atom   30 type  1   force =    -0.00153019   -0.00077123   -0.02091823
     atom   31 type  1   force =     0.00015048    0.00012718    0.00013885
     atom   32 type  1   force =    -0.00015293   -0.00006613   -0.00028175
     atom   33 type  1   force =     0.00005139    0.00005904    0.01927352
     atom   34 type  1   force =    -0.00048909   -0.00055936   -0.02011179
     atom   35 type  1   force =     0.00013903    0.00014109    0.00001122
     atom   36 type  1   force =    -0.00022593   -0.00003946   -0.00011856
     atom   37 type  2   force =     0.00072112   -0.00046238    0.00091208

     Total force =     0.080761     Total SCF correction =     0.003647
 !ASE

     Writing output data file calc.save

     General routines

     Parallel routines

   This run was terminated on:  19:31: 1  22Feb2018

   JOB DONE.