     Program PWSCF v.5.1rc2 (svn rev. ) starts on 20Feb2018 at 11:43:11

     Current dimensions of program PWSCF are:
     Max number of different atomic species (ntypx) = 10
     Max number of k-points (npk) =  40000
     Max angular momentum in pseudopotentials (lmaxx) =  3
     Presently no symmetry can be used with electric field

     IMPORTANT: XC functional enforced from input :
     Exchange-correlation      = RPBE ( 1  4 28  4 0)
     Any further DFT definition will be discarded
     Please, verify this is what you really want

               file Ni.UPF: wavefunction(s)  3D renormalized

     Subspace diagonalization in iterative solution of the eigenvalue problem:
     a serial algorithm will be used

     Found symmetry operation: I + (  0.0000  0.3333  0.0000)
     This is a supercell, fractional translations are disabled

     Generating pointlists ...
     new r_m :   0.4125 (alat units)  0.7795 (a.u.) for type    1

     bravais-lattice index     =            0
     lattice parameter (alat)  =       1.8897  a.u.
     unit-cell volume          =   10207.8337 (a.u.)^3
     number of atoms/cell      =           36
     number of atomic types    =            1
     number of electrons       =       360.00
     number of Kohn-Sham states=          280
     kinetic-energy cutoff     =      44.0992  Ry
     charge density cutoff     =     440.9919  Ry
     convergence threshold     =      7.3E-07
     mixing beta               =       0.1000
     number of iterations used =           10  plain     mixing
     Exchange-correlation      = RPBE ( 1  4 28  4 0)
     nstep                     =           50

     celldm(1)=   1.889726  celldm(2)=   0.000000  celldm(3)=   0.000000
     celldm(4)=   0.000000  celldm(5)=   0.000000  celldm(6)=   0.000000

     crystal axes: (cart. coord. in units of alat)
               a(1) = (  13.073539   0.000000   0.000000 )
               a(2) = (  -4.357846   6.162925   0.000000 )
               a(3) = (   0.000000   0.000000  18.774005 )

     reciprocal axes: (cart. coord. in units 2 pi/alat)
               b(1) = (  0.076490  0.054087  0.000000 )
               b(2) = (  0.000000  0.162261  0.000000 )
               b(3) = (  0.000000  0.000000  0.053265 )

     PseudoPot. # 1 for Ni read from file:
     /home/alatimer/bin/psp/esp_psp_w_gbrvRu/Ni.UPF
     MD5 check sum: 8b2449ee0060d9c33484ccd47bb60870
     Pseudo is Ultrasoft + core correction, Zval = 10.0
     Generated using "atomic" code by A. Dal Corso  v.5.0.2 svn rev. 9415
     Using radial grid of 1195 points,  6 beta functions with:
                l(1) =   0
                l(2) =   0
                l(3) =   1
                l(4) =   1
                l(5) =   2
                l(6) =   2
     Q(r) pseudized with 0 coefficients

     atomic species   valence    mass     pseudopotential
        Ni1           10.00    58.69340     Ni( 1.00)

     Starting magnetic structure
     atomic species   magnetization
        Ni1          0.300

     No symmetry found

   Cartesian axes

     site n.     atom                  positions (alat units)
         1           Ni1 tau(   1) = (   0.0000000   0.0000000   7.5000000  )
         2           Ni1 tau(   2) = (   2.1789231   0.0000000   8.7580018  )
         3           Ni1 tau(   3) = (   0.0000000   0.0000000  10.0160037  )
         4           Ni1 tau(   4) = (   2.1789231   0.0000000  11.2740055  )
         5           Ni1 tau(   5) = (  -1.4526154   2.0543084   7.5000000  )
         6           Ni1 tau(   6) = (   0.7263077   2.0543084   8.7580018  )
         7           Ni1 tau(   7) = (  -1.4526154   2.0543084  10.0160037  )
         8           Ni1 tau(   8) = (   0.7263077   2.0543084  11.2740055  )
         9           Ni1 tau(   9) = (  -2.9052308   4.1086168   7.5000000  )
        10           Ni1 tau(  10) = (  -0.7263077   4.1086168   8.7580018  )
        11           Ni1 tau(  11) = (  -2.9052308   4.1086168  10.0160037  )
        12           Ni1 tau(  12) = (  -0.7263077   4.1086168  11.2740055  )
        13           Ni1 tau(  13) = (   4.3578462   0.0000000   7.5000000  )
        14           Ni1 tau(  14) = (   6.5367693   0.0000000   8.7580018  )
        15           Ni1 tau(  15) = (   4.3578462   0.0000000  10.0160037  )
        16           Ni1 tau(  16) = (   6.5367693   0.0000000  11.2740055  )
        17           Ni1 tau(  17) = (   2.9052308   2.0543084   7.5000000  )
        18           Ni1 tau(  18) = (   5.0841539   2.0543084   8.7580018  )
        19           Ni1 tau(  19) = (   2.9052308   2.0543084  10.0160037  )
        20           Ni1 tau(  20) = (   5.0841539   2.0543084  11.2740055  )
        21           Ni1 tau(  21) = (   1.4526154   4.1086168   7.5000000  )
        22           Ni1 tau(  22) = (   3.6315385   4.1086168   8.7580018  )
        23           Ni1 tau(  23) = (   1.4526154   4.1086168  10.0160037  )
        24           Ni1 tau(  24) = (   3.6315385   4.1086168  11.2740055  )
        25           Ni1 tau(  25) = (   8.7156924   0.0000000   7.5000000  )
        26           Ni1 tau(  26) = (  10.8946154   0.0000000   8.7580018  )
        27           Ni1 tau(  27) = (   8.7156924   0.0000000  10.0160037  )
        28           Ni1 tau(  28) = (  10.8946154   0.0000000  11.2740055  )
        29           Ni1 tau(  29) = (   7.2630770   2.0543084   7.5000000  )
        30           Ni1 tau(  30) = (   9.4420001   2.0543084   8.7580018  )
        31           Ni1 tau(  31) = (   7.2630770   2.0543084  10.0160037  )
        32           Ni1 tau(  32) = (   9.4420001   2.0543084  11.2740055  )
        33           Ni1 tau(  33) = (   5.8104616   4.1086168   7.5000000  )
        34           Ni1 tau(  34) = (   7.9893847   4.1086168   8.7580018  )
        35           Ni1 tau(  35) = (   5.8104616   4.1086168  10.0160037  )
        36           Ni1 tau(  36) = (   7.9893847   4.1086168  11.2740055  )

     number of k points=    10  Fermi-Dirac smearing, width (Ry)=  0.0073
                       cart. coord. in units 2pi/alat
        k(    1) = (   0.0000000   0.0000000   0.0000000), wk =   0.1111111
        k(    2) = (   0.0000000   0.0540869   0.0000000), wk =   0.2222222
        k(    3) = (   0.0254968   0.0180290   0.0000000), wk =   0.2222222
        k(    4) = (   0.0254968   0.0721158   0.0000000), wk =   0.2222222
        k(    5) = (   0.0254968  -0.0360579   0.0000000), wk =   0.2222222
        k(    6) = (   0.0000000   0.0000000   0.0000000), wk =   0.1111111
        k(    7) = (   0.0000000   0.0540869   0.0000000), wk =   0.2222222
        k(    8) = (   0.0254968   0.0180290   0.0000000), wk =   0.2222222
        k(    9) = (   0.0254968   0.0721158   0.0000000), wk =   0.2222222
        k(   10) = (   0.0254968  -0.0360579   0.0000000), wk =   0.2222222

     Largest allocated arrays     est. size (Mb)     dimensions
     Largest temporary arrays     est. size (Mb)     dimensions

     Initial potential from superposition of free atoms
     Check: negative starting charge=(component1):   -0.000524
     Check: negative starting charge=(component2):   -0.000282

     starting charge  359.99096, renormalised to  360.00000

     negative rho (up, down):  5.242E-04 2.823E-04

     Adding external electric field

     Computed dipole along edir(3) :
        Dipole               -0.0000 Ry au,         -0.0000 Debye
        Dipole field         -0.0000 Ry au

        Potential amp.        0.0000 Ry
        Total length         34.5908 bohr

[...]

     Starting wfc are  324 randomized atomic wfcs

     Self-consistent Calculation

     iteration #  1     ecut=    44.10 Ry     beta=0.10
     Davidson diagonalization with overlap
     ethr =  1.00E-02,  avg # of iterations =  7.6

[...]

     Magnetic moment per site:
     atom:    1    charge:    3.9565    magn:    1.1245    constr:    0.0000
     atom:    2    charge:    3.9768    magn:    1.1068    constr:    0.0000
     atom:    3    charge:    3.9768    magn:    1.1068    constr:    0.0000
     atom:    4    charge:    3.9565    magn:    1.1245    constr:    0.0000
     atom:    5    charge:    3.9565    magn:    1.1245    constr:    0.0000
     atom:    6    charge:    3.9768    magn:    1.1068    constr:    0.0000
     atom:    7    charge:    3.9768    magn:    1.1068    constr:    0.0000
     atom:    8    charge:    3.9565    magn:    1.1245    constr:    0.0000
     atom:    9    charge:    3.9565    magn:    1.1245    constr:    0.0000
     atom:   10    charge:    3.9768    magn:    1.1068    constr:    0.0000
     atom:   11    charge:    3.9768    magn:    1.1068    constr:    0.0000
     atom:   12    charge:    3.9565    magn:    1.1245    constr:    0.0000
     atom:   13    charge:    3.9565    magn:    1.1245    constr:    0.0000
     atom:   14    charge:    3.9768    magn:    1.1068    constr:    0.0000
     atom:   15    charge:    3.9768    magn:    1.1068    constr:    0.0000
     atom:   16    charge:    3.9565    magn:    1.1245    constr:    0.0000
     atom:   17    charge:    3.9565    magn:    1.1245    constr:    0.0000
     atom:   18    charge:    3.9768    magn:    1.1068    constr:    0.0000
     atom:   19    charge:    3.9768    magn:    1.1068    constr:    0.0000
     atom:   20    charge:    3.9565    magn:    1.1245    constr:    0.0000
     atom:   21    charge:    3.9565    magn:    1.1244    constr:    0.0000
     atom:   22    charge:    3.9768    magn:    1.1068    constr:    0.0000
     atom:   23    charge:    3.9768    magn:    1.1068    constr:    0.0000
     atom:   24    charge:    3.9565    magn:    1.1245    constr:    0.0000
     atom:   25    charge:    3.9565    magn:    1.1244    constr:    0.0000
     atom:   26    charge:    3.9768    magn:    1.1068    constr:    0.0000
     atom:   27    charge:    3.9768    magn:    1.1068    constr:    0.0000
     atom:   28    charge:    3.9565    magn:    1.1245    constr:    0.0000
     atom:   29    charge:    3.9565    magn:    1.1245    constr:    0.0000
     atom:   30    charge:    3.9768    magn:    1.1068    constr:    0.0000
     atom:   31    charge:    3.9768    magn:    1.1068    constr:    0.0000
     atom:   32    charge:    3.9565    magn:    1.1245    constr:    0.0000
     atom:   33    charge:    3.9565    magn:    1.1245    constr:    0.0000
     atom:   34    charge:    3.9768    magn:    1.1068    constr:    0.0000
     atom:   35    charge:    3.9768    magn:    1.1068    constr:    0.0000
     atom:   36    charge:    3.9565    magn:    1.1245    constr:    0.0000

     total energy              =   -3620.16919805 Ry
     Harris-Foulkes estimate   =   -3621.37717745 Ry
     estimated scf accuracy    <      12.02127922 Ry

     total magnetization       =    34.05 Bohr mag/cell
     absolute magnetization    =    34.06 Bohr mag/cell

[...]

     iteration #  5     ecut=    44.10 Ry     beta=0.10
     Davidson diagonalization with overlap
     c_bands:  1 eigenvalues not converged
     ethr =  3.32E-04,  avg # of iterations =  5.8

[...]

     iteration # 15     ecut=    44.10 Ry     beta=0.10
     Davidson diagonalization with overlap
     c_bands:  1 eigenvalues not converged
[...]

    -7.2246  -5.9461  -5.9461  -4.8389  -4.8389  -4.6050  -4.0603  -4.0603
    -4.0603  -4.0603  -4.0001  -4.0001  -3.6486  -3.6486  -3.5142  -3.5142
    -3.4463  -3.2991  -3.2991  -3.1022  -3.1022  -3.1022  -3.1022  -2.9484
    -2.8935  -2.8935  -2.8605  -2.8605  -2.8565  -2.8565  -2.8565  -2.8565
    -2.8185  -2.7505  -2.7505  -2.7364  -2.7364  -2.7364  -2.7364  -2.5775
    -2.5775  -2.4653  -2.4653  -2.3683  -2.3683  -2.3683  -2.3683  -2.3570
    -2.3570  -2.3570  -2.3570  -2.2119  -2.2119  -2.1843  -2.0424  -2.0104
    -2.0104  -2.0104  -2.0104  -1.9990  -1.9954  -1.9954  -1.9569  -1.9569
    -1.9197  -1.9197  -1.8749  -1.8749  -1.8514  -1.8514  -1.8514  -1.8514
    -1.7510  -1.7510  -1.7487  -1.7487  -1.7487  -1.7486  -1.6279  -1.5686
    -1.5686  -1.5686  -1.5686  -1.5679  -1.5562  -1.5508  -1.5508  -1.5508
    -1.5508  -1.5401  -1.5401  -1.4941  -1.4941  -1.4355  -1.4355  -1.4296
    -1.4296  -1.3273  -1.2330  -1.2330  -1.2330  -1.2330  -1.1757  -1.1756
    -1.1354  -1.1354  -1.1303  -1.1303  -1.0874  -1.0874  -1.0315  -1.0315
    -1.0314  -1.0314  -0.9796  -0.9796  -0.9411  -0.9411  -0.9410  -0.9410
    -0.9326  -0.9178  -0.9035  -0.9035  -0.8922  -0.8189  -0.8189  -0.7504
    -0.7474  -0.7474  -0.7258  -0.7258  -0.7258  -0.7258  -0.6911  -0.6911
    -0.6218  -0.6218  -0.6190  -0.6190  -0.6190  -0.6190  -0.5322  -0.5322
    -0.5322  -0.5322  -0.5214  -0.5211  -0.5211  -0.4773  -0.4756  -0.4756
    -0.4283  -0.4283  -0.4150  -0.4150  -0.3751  -0.3751  -0.3751  -0.3751
    -0.3500  -0.3295  -0.3294  -0.3294  -0.3294  -0.3094  -0.3094  -0.3057
    -0.3043  -0.3043  -0.2617  -0.2617  -0.2547  -0.2547  -0.2547  -0.2547
    -0.1985  -0.1985  -0.1733  -0.1535  -0.1534  -0.1534  -0.1534  -0.1147
    -0.1147  -0.1120  -0.1119  -0.0858  -0.0858  -0.0496  -0.0496  -0.0130
    -0.0130  -0.0044   0.4676   0.5895   0.5895   1.1771   1.1771   1.5766
     1.5766   1.5766   1.5766   2.5955   2.5955   2.7560   2.7560   2.9312
     3.0155   3.0155   3.0155   3.0155   3.3894   3.3895   4.0611   4.0611
     4.0612   4.0612   4.2030   4.5320   5.0804   5.0804   5.1912   5.4276
     5.5067   5.5067   5.6221   5.6221   5.6221   5.6221   5.9052   5.9052
     6.1669   6.1669   6.5225   6.5225   6.5225   6.5225   6.7022   6.7022
     6.7339   6.7339   7.2857   7.2857   7.5990   7.5990   7.8002   7.8169
     7.8169   7.8169   7.8169   7.8686   7.8686   7.9815   8.0820   8.0820
     8.0820   8.0820   8.1111   8.4880   8.4880   8.4880   8.4880   8.6466
     8.6466   8.6784   8.6784   8.6901   8.6901   9.0488   9.0488   9.0488
     9.0488   9.2300   9.2300   9.4657   9.4658   9.5120   9.5120   9.5121

[...]

 ------ SPIN DOWN ----------

[...]

     the Fermi energy is     0.4801 ev

!    total energy              =   -3622.10405958 Ry
     Harris-Foulkes estimate   =   -3622.10405967 Ry
     estimated scf accuracy    <       0.00000048 Ry

     The total energy is the sum of the following terms:

     one-electron contribution =  -18556.13085540 Ry
     hartree contribution      =    9655.82456324 Ry
     xc contribution           =   -1504.76806626 Ry
     ewald contribution        =    6783.16181128 Ry
     electric field correction =       0.00000001 Ry
     smearing contrib. (-TS)   =      -0.19151245 Ry

[...]

     convergence has been achieved in  58 iterations

     Forces acting on atoms (Ry/au):

     negative rho (up, down):  3.715E-04 2.807E-04
     atom    1 type  1   force =     0.00001904   -0.00002505    0.01931227
     atom    2 type  1   force =     0.00022240   -0.00002260   -0.01101440
     atom    3 type  1   force =    -0.00001351   -0.00012044    0.01119303
     atom    4 type  1   force =     0.00007506   -0.00012680   -0.01936018
     atom    5 type  1   force =    -0.00002779    0.00007006    0.01930489
     atom    6 type  1   force =     0.00010153    0.00015415   -0.01106599
     atom    7 type  1   force =    -0.00011185    0.00007508    0.01119737
     atom    8 type  1   force =    -0.00003267    0.00006166   -0.01931844
     atom    9 type  1   force =     0.00005676   -0.00001186    0.01936651
     atom   10 type  1   force =     0.00012006    0.00018314   -0.01100256
     atom   11 type  1   force =     0.00001339   -0.00003330    0.01119302
     atom   12 type  1   force =    -0.00002751    0.00007533   -0.01937674
     atom   13 type  1   force =     0.00011963   -0.00000384    0.01935270
     atom   14 type  1   force =    -0.00005494   -0.00003628   -0.01110029
     atom   15 type  1   force =     0.00007116   -0.00007121    0.01095191
     atom   16 type  1   force =     0.00000769    0.00001101   -0.01946831
     atom   17 type  1   force =     0.00012417    0.00003337    0.01929140
     atom   18 type  1   force =     0.00002422   -0.00009151   -0.01112410
     atom   19 type  1   force =     0.00008972   -0.00000156    0.01097528
     atom   20 type  1   force =     0.00007260   -0.00003983   -0.01943024
     atom   21 type  1   force =     0.00004029    0.00017066    0.01933097
     atom   22 type  1   force =    -0.00003934    0.00007783   -0.01112350
     atom   23 type  1   force =    -0.00002032    0.00017201    0.01096672
     atom   24 type  1   force =     0.00000836    0.00009171   -0.01942983
     atom   25 type  1   force =    -0.00013549   -0.00006578    0.01935076
     atom   26 type  1   force =    -0.00016621   -0.00008426   -0.01096090
     atom   27 type  1   force =    -0.00006002    0.00002483    0.01104968
     atom   28 type  1   force =    -0.00007131   -0.00001961   -0.01931576
     atom   29 type  1   force =    -0.00008821   -0.00010864    0.01936497
     atom   30 type  1   force =    -0.00013109   -0.00005444   -0.01093329
     atom   31 type  1   force =     0.00002549   -0.00004580    0.01105752
     atom   32 type  1   force =    -0.00004412    0.00000209   -0.01934719
     atom   33 type  1   force =    -0.00010659   -0.00005854    0.01933536
     atom   34 type  1   force =    -0.00007840   -0.00012625   -0.01092426
     atom   35 type  1   force =     0.00000975    0.00000343    0.01105062
     atom   36 type  1   force =     0.00000806   -0.00005874   -0.01934897

     Total force =     0.094561     Total SCF correction =     0.002426
 !ASE

     Writing output data file calc.save
     Check: negative starting charge=(component1):   -0.000806
     NEW-OLD atomic charge density approx. for the potential
     Check: negative starting charge=(component1):   -0.000861

[...]

     Writing output data file calc.save
     Check: negative starting charge=(component1):   -0.000875
     NEW-OLD atomic charge density approx. for the potential
     Check: negative starting charge=(component1):   -0.000873

[...]

     Self-consistent Calculation

[...]

     total energy              =   -3622.12075568 Ry
     Harris-Foulkes estimate   =   -3622.12075560 Ry
     estimated scf accuracy    <       0.00000074 Ry

[...]

     iteration # 22     ecut=    44.10 Ry     beta=0.10
     Davidson diagonalization with overlap
     ethr =  2.07E-10,  avg # of iterations =  1.0

     negative rho (up, down):  4.136E-04 3.111E-04

[...]

     Adding external electric field

     Computed dipole along edir(3) :
        Dipole                0.0305 Ry au,          0.0774 Debye
        Dipole field          0.0000 Ry au

        Potential amp.       -0.0026 Ry
        Total length         34.5908 bohr

     Magnetic moment per site:
     atom:    1    charge:    3.9861    magn:    0.4279    constr:    0.0000
     atom:    2    charge:    3.9710    magn:    0.3920    constr:    0.0000
     atom:    3    charge:    3.9674    magn:    0.3857    constr:    0.0000
     atom:    4    charge:    3.8755    magn:    0.4139    constr:    0.0000
     atom:    5    charge:    3.9860    magn:    0.4280    constr:    0.0000
     atom:    6    charge:    3.9710    magn:    0.3920    constr:    0.0000
     atom:    7    charge:    3.9673    magn:    0.3857    constr:    0.0000
     atom:    8    charge:    3.8767    magn:    0.4140    constr:    0.0000
     atom:    9    charge:    3.9860    magn:    0.4279    constr:    0.0000
     atom:   10    charge:    3.9709    magn:    0.3920    constr:    0.0000
     atom:   11    charge:    3.9669    magn:    0.3857    constr:    0.0000
     atom:   12    charge:    3.8744    magn:    0.4138    constr:    0.0000
     atom:   13    charge:    3.9860    magn:    0.4280    constr:    0.0000
     atom:   14    charge:    3.9710    magn:    0.3919    constr:    0.0000
     atom:   15    charge:    3.9670    magn:    0.3857    constr:    0.0000
     atom:   16    charge:    3.8745    magn:    0.4137    constr:    0.0000
     atom:   17    charge:    3.9861    magn:    0.4279    constr:    0.0000
     atom:   18    charge:    3.9710    magn:    0.3920    constr:    0.0000
     atom:   19    charge:    3.9672    magn:    0.3857    constr:    0.0000
     atom:   20    charge:    3.8756    magn:    0.4139    constr:    0.0000
     atom:   21    charge:    3.9861    magn:    0.4279    constr:    0.0000
     atom:   22    charge:    3.9710    magn:    0.3919    constr:    0.0000
     atom:   23    charge:    3.9670    magn:    0.3857    constr:    0.0000
     atom:   24    charge:    3.8761    magn:    0.4140    constr:    0.0000
     atom:   25    charge:    3.9861    magn:    0.4279    constr:    0.0000
     atom:   26    charge:    3.9710    magn:    0.3919    constr:    0.0000
     atom:   27    charge:    3.9672    magn:    0.3857    constr:    0.0000
     atom:   28    charge:    3.8753    magn:    0.4139    constr:    0.0000
     atom:   29    charge:    3.9860    magn:    0.4280    constr:    0.0000
     atom:   30    charge:    3.9709    magn:    0.3919    constr:    0.0000
     atom:   31    charge:    3.9671    magn:    0.3857    constr:    0.0000
     atom:   32    charge:    3.8736    magn:    0.4138    constr:    0.0000
     atom:   33    charge:    3.9861    magn:    0.4278    constr:    0.0000
     atom:   34    charge:    3.9710    magn:    0.3919    constr:    0.0000
     atom:   35    charge:    3.9673    magn:    0.3857    constr:    0.0000
     atom:   36    charge:    3.8745    magn:    0.4139    constr:    0.0000

     End of self-consistent calculation

 ------ SPIN UP ------------

[...]

 ------ SPIN DOWN ----------

[...]

          k = 0.0255-0.0361 0.0000 ( 50488 PWs)   bands (ev):

    -7.0662  -6.1957  -5.7950  -5.7938  -5.0205  -5.0193  -4.3827  -3.7500
    -3.7416  -3.6159  -3.6153  -3.3143  -3.3135  -3.3072  -3.3071  -3.2381
    -2.9955  -2.9945  -2.9364  -2.9361  -2.9324  -2.8400  -2.8397  -2.7416
    -2.7414  -2.6318  -2.5662  -2.5526  -2.5516  -2.5028  -2.4230  -2.4228
    -2.3891  -2.3592  -2.3447  -2.3445  -2.1707  -2.1676  -2.0878  -2.0704
    -2.0503  -2.0232  -2.0221  -1.9897  -1.9883  -1.9638  -1.9631  -1.9452
    -1.8994  -1.8987  -1.8795  -1.6945  -1.6586  -1.6580  -1.6159  -1.5741
    -1.5044  -1.5039  -1.5018  -1.5017  -1.4857  -1.4395  -1.4057  -1.3782
    -1.3779  -1.3711  -1.3710  -1.3694  -1.3692  -1.3540  -1.3539  -1.3370
    -1.3368  -1.3116  -1.3114  -1.1492  -1.1429  -1.1426  -1.0951  -1.0278
    -1.0276  -1.0275  -1.0113  -1.0106  -1.0058  -1.0053  -0.9857  -0.9619
    -0.9346  -0.9343  -0.9009  -0.9008  -0.8930  -0.8372  -0.7965  -0.7962
    -0.7855  -0.7802  -0.7798  -0.7217  -0.7214  -0.6798  -0.6795  -0.6488
    -0.6442  -0.6441  -0.6108  -0.6104  -0.5732  -0.5731  -0.5248  -0.5248
    -0.4535  -0.4533  -0.4084  -0.3898  -0.3893  -0.3844  -0.3595  -0.3592
    -0.3426  -0.3164  -0.2847  -0.2649  -0.2195  -0.2193  -0.1947  -0.1946
    -0.1212  -0.1209  -0.1148  -0.1148  -0.0846  -0.0691  -0.0404  -0.0086
     0.0346   0.0346   0.0418   0.1191   0.1384   0.1384   0.1692   0.1693
     0.1942   0.2039   0.2098   0.2127   0.2128   0.2446   0.2447   0.2485
     0.2624   0.2626   0.2964   0.3392   0.3613   0.3613   0.3622   0.3626
     0.3653   0.3656   0.3888   0.4210   0.4277   0.4605   0.4606   0.4886
     0.5100   0.5103   0.5137   0.5138   0.5167   0.5169   0.5366   0.5382
     0.5447   0.5796   0.5797   0.6331   0.6952   0.6962   0.6963   0.7139
     0.7141   0.7157   0.7160   0.7270   0.7700   0.8258   1.1171   1.2050
     1.2052   1.2559   1.2560   1.3925   1.5370   1.5375   1.7274   1.7867
     2.0089   2.0091   2.4130   2.4132   2.8266   2.8267   3.0873   3.0875
     3.1519   3.3617   3.3620   3.4835   3.4951   3.6177   3.6182   4.0313
     4.0318   4.2944   4.3058   4.3060   4.5097   5.1609   5.1718   5.1721
     5.2580   5.2584   5.3685   5.5430   5.7685   5.8103   5.8103   6.0408
     6.2571   6.2572   6.4164   6.5973   6.6798   6.6799   6.7271   6.7551
     6.9016   6.9016   7.0392   7.0392   7.0568   7.0568   7.1209   7.1210
     7.6435   7.6436   7.9083   7.9083   8.1184   8.1190   8.1217   8.1940
     8.1942   8.3545   8.3546   8.4014   8.5752   8.8200   8.8203   8.8764
     8.8909   8.9374   9.0665   9.0665   9.2068   9.5483   9.5484   9.6296
     9.6474   9.8249   9.8250   9.8550   9.8551   9.9374   9.9375  10.0073

     the Fermi energy is     0.4722 ev

!    total energy              =   -3622.12075566 Ry
     Harris-Foulkes estimate   =   -3622.12075565 Ry
     estimated scf accuracy    <       0.00000040 Ry

     The total energy is the sum of the following terms:

     one-electron contribution =  -18777.59436467 Ry
     hartree contribution      =    9766.11379892 Ry
     xc contribution           =   -1505.00269273 Ry
     ewald contribution        =    6894.55096314 Ry
     electric field correction =       0.00000114 Ry
     smearing contrib. (-TS)   =      -0.18846146 Ry

     total magnetization       =    24.38 Bohr mag/cell
     absolute magnetization    =    28.09 Bohr mag/cell

     convergence has been achieved in  22 iterations

     Forces acting on atoms (Ry/au):

     negative rho (up, down):  4.136E-04 3.111E-04
     atom    1 type  1   force =     0.00004601    0.00001778    0.01927405
     atom    2 type  1   force =     0.00004614   -0.00011764   -0.01976991
     atom    3 type  1   force =     0.00015971    0.00051807    0.00055855
     atom    4 type  1   force =    -0.00026889    0.00017624    0.00016924
     atom    5 type  1   force =    -0.00003283    0.00011731    0.01929505
     atom    6 type  1   force =    -0.00009491    0.00004622   -0.01957193
     atom    7 type  1   force =     0.00053041   -0.00025126    0.00038478
     atom    8 type  1   force =    -0.00009068   -0.00020605   -0.00010828
     atom    9 type  1   force =     0.00007427   -0.00007418    0.01935969
     atom   10 type  1   force =    -0.00008759   -0.00002448   -0.01997306
     atom   11 type  1   force =     0.00004064    0.00024961    0.00013078
     atom   12 type  1   force =    -0.00004773   -0.00025873    0.00037409
     atom   13 type  1   force =    -0.00000793   -0.00005865    0.01930399
     atom   14 type  1   force =    -0.00005183    0.00018781   -0.02011558
     atom   15 type  1   force =    -0.00024937    0.00023900    0.00010010
     atom   16 type  1   force =     0.00004179    0.00026067    0.00049456
     atom   17 type  1   force =    -0.00002057   -0.00009103    0.01928766
     atom   18 type  1   force =     0.00017321   -0.00015606   -0.01989474
     atom   19 type  1   force =    -0.00045675   -0.00008959    0.00035559
     atom   20 type  1   force =     0.00014430    0.00002737    0.00025698
     atom   21 type  1   force =    -0.00013806    0.00003153    0.01929703
     atom   22 type  1   force =    -0.00002694    0.00003555   -0.01984937
     atom   23 type  1   force =    -0.00005468   -0.00068640    0.00015021
     atom   24 type  1   force =     0.00014217   -0.00005605    0.00023053
     atom   25 type  1   force =    -0.00004887    0.00016053    0.01925450
     atom   26 type  1   force =    -0.00002809    0.00013601   -0.01981764
     atom   27 type  1   force =     0.00027832   -0.00014721    0.00027617
     atom   28 type  1   force =     0.00007680    0.00009280    0.00031692
     atom   29 type  1   force =     0.00004691   -0.00002947    0.01929827
     atom   30 type  1   force =    -0.00003608    0.00009106   -0.02009610
     atom   31 type  1   force =    -0.00023010    0.00011249    0.00018285
     atom   32 type  1   force =     0.00006130   -0.00006548    0.00061927
     atom   33 type  1   force =     0.00007884   -0.00007574    0.01925247
     atom   34 type  1   force =     0.00011441   -0.00019238   -0.01994821
     atom   35 type  1   force =    -0.00004516    0.00003744    0.00043001
     atom   36 type  1   force =    -0.00003818    0.00004290    0.00049147

     Total force =     0.083161     Total SCF correction =     0.002002
 !ASE

     Writing output data file calc.save

     General routines

     Parallel routines

   This run was terminated on:  17: 5: 0  20Feb2018

   JOB DONE.