     Program PWSCF v.5.1rc2 (svn rev. ) starts on 23Mar2018 at  8:53:25

     Current dimensions of program PWSCF are:
     Max number of different atomic species (ntypx) = 10
     Max number of k-points (npk) =  40000
     Max angular momentum in pseudopotentials (lmaxx) =  3
     Presently no symmetry can be used with electric field

     IMPORTANT: XC functional enforced from input :
     Exchange-correlation      = RPBE ( 1  4 28  4 0)
     Any further DFT definition will be discarded
     Please, verify this is what you really want

               file Ni.UPF: wavefunction(s)  3D renormalized

     Subspace diagonalization in iterative solution of the eigenvalue problem:
     a serial algorithm will be used

     Found symmetry operation: I + (  0.0000  0.3333  0.0000)
     This is a supercell, fractional translations are disabled

     Generating pointlists ...
     new r_m :   0.4125 (alat units)  0.7795 (a.u.) for type    1

     bravais-lattice index     =            0
     lattice parameter (alat)  =       1.8897  a.u.
     unit-cell volume          =   12553.3819 (a.u.)^3
     number of atoms/cell      =           36
     number of atomic types    =            1
     number of electrons       =       360.00
     number of Kohn-Sham states=          280
     kinetic-energy cutoff     =      44.0992  Ry
     charge density cutoff     =     440.9919  Ry
     convergence threshold     =      7.3E-07
     mixing beta               =       0.1000
     number of iterations used =           10  plain     mixing
     Exchange-correlation      = RPBE ( 1  4 28  4 0)
     nstep                     =           50

     celldm(1)=   1.889726  celldm(2)=   0.000000  celldm(3)=   0.000000
     celldm(4)=   0.000000  celldm(5)=   0.000000  celldm(6)=   0.000000

     crystal axes: (cart. coord. in units of alat)
               a(1) = (   6.162925   0.000000   0.000000 )
               a(2) = (   0.000000   7.548011   0.000000 )
               a(3) = (   0.000000   0.000000  39.989385 )

     reciprocal axes: (cart. coord. in units 2 pi/alat)
               b(1) = (  0.162261  0.000000  0.000000 )
               b(2) = (  0.000000  0.132485  0.000000 )
               b(3) = (  0.000000  0.000000  0.025007 )

     PseudoPot. # 1 for Ni read from file:
     /home/alatimer/bin/psp/esp_psp_w_gbrvRu/Ni.UPF
     MD5 check sum: 8b2449ee0060d9c33484ccd47bb60870
     Pseudo is Ultrasoft + core correction, Zval = 10.0
     Generated using "atomic" code by A. Dal Corso  v.5.0.2 svn rev. 9415
     Using radial grid of 1195 points,  6 beta functions with:
                l(1) =   0
                l(2) =   0
                l(3) =   1
                l(4) =   1
                l(5) =   2
                l(6) =   2
     Q(r) pseudized with 0 coefficients

     atomic species   valence    mass     pseudopotential
        Ni1           10.00    58.69340     Ni( 1.00)

     Starting magnetic structure
     atomic species   magnetization
        Ni1          0.300

     No symmetry found

   Cartesian axes

     site n.     atom                  positions (alat units)
         1           Ni1 tau(   1) = (   0.0000000   1.2580018  23.9893847  )
         2           Ni1 tau(   2) = (   0.0000000   3.7740055  23.9893847  )
         3           Ni1 tau(   3) = (   0.0000000   6.2900092  23.9893847  )
         4           Ni1 tau(   4) = (   4.1086168   0.0000000  23.2630770  )
         5           Ni1 tau(   5) = (   4.1086168   2.5160037  23.2630770  )
         6           Ni1 tau(   6) = (   4.1086168   5.0320073  23.2630770  )
         7           Ni1 tau(   7) = (   2.0543084   1.2580018  22.5367693  )
         8           Ni1 tau(   8) = (   2.0543084   3.7740055  22.5367693  )
         9           Ni1 tau(   9) = (   2.0543084   6.2900092  22.5367693  )
        10           Ni1 tau(  10) = (   0.0000000   0.0000000  21.8104616  )
        11           Ni1 tau(  11) = (   0.0000000   2.5160037  21.8104616  )
        12           Ni1 tau(  12) = (   0.0000000   5.0320073  21.8104616  )
        13           Ni1 tau(  13) = (   4.1086168   1.2580018  21.0841539  )
        14           Ni1 tau(  14) = (   4.1086168   3.7740055  21.0841539  )
        15           Ni1 tau(  15) = (   4.1086168   6.2900092  21.0841539  )
        16           Ni1 tau(  16) = (   2.0543084   0.0000000  20.3578462  )
        17           Ni1 tau(  17) = (   2.0543084   2.5160037  20.3578462  )
        18           Ni1 tau(  18) = (   2.0543084   5.0320073  20.3578462  )
        19           Ni1 tau(  19) = (   0.0000000   1.2580018  19.6315385  )
        20           Ni1 tau(  20) = (   0.0000000   3.7740055  19.6315385  )
        21           Ni1 tau(  21) = (   0.0000000   6.2900092  19.6315385  )
        22           Ni1 tau(  22) = (   4.1086168   0.0000000  18.9052308  )
        23           Ni1 tau(  23) = (   4.1086168   2.5160037  18.9052308  )
        24           Ni1 tau(  24) = (   4.1086168   5.0320073  18.9052308  )
        25           Ni1 tau(  25) = (   2.0543084   1.2580018  18.1789231  )
        26           Ni1 tau(  26) = (   2.0543084   3.7740055  18.1789231  )
        27           Ni1 tau(  27) = (   2.0543084   6.2900092  18.1789231  )
        28           Ni1 tau(  28) = (   0.0000000   0.0000000  17.4526154  )
        29           Ni1 tau(  29) = (   0.0000000   2.5160037  17.4526154  )
        30           Ni1 tau(  30) = (   0.0000000   5.0320073  17.4526154  )
        31           Ni1 tau(  31) = (   4.1086168   1.2580018  16.7263077  )
        32           Ni1 tau(  32) = (   4.1086168   3.7740055  16.7263077  )
        33           Ni1 tau(  33) = (   4.1086168   6.2900092  16.7263077  )
        34           Ni1 tau(  34) = (   2.0543084   0.0000000  16.0000000  )
        35           Ni1 tau(  35) = (   2.0543084   2.5160037  16.0000000  )
        36           Ni1 tau(  36) = (   2.0543084   5.0320073  16.0000000  )

     number of k points=    10  Fermi-Dirac smearing, width (Ry)=  0.0073
                       cart. coord. in units 2pi/alat
        k(    1) = (   0.0000000   0.0000000   0.0000000), wk =   0.1111111
        k(    2) = (   0.0000000   0.0441617   0.0000000), wk =   0.2222222
        k(    3) = (   0.0540869   0.0000000   0.0000000), wk =   0.2222222
        k(    4) = (   0.0540869   0.0441617   0.0000000), wk =   0.2222222
        k(    5) = (   0.0540869  -0.0441617   0.0000000), wk =   0.2222222
        k(    6) = (   0.0000000   0.0000000   0.0000000), wk =   0.1111111
        k(    7) = (   0.0000000   0.0441617   0.0000000), wk =   0.2222222
        k(    8) = (   0.0540869   0.0000000   0.0000000), wk =   0.2222222
        k(    9) = (   0.0540869   0.0441617   0.0000000), wk =   0.2222222
        k(   10) = (   0.0540869  -0.0441617   0.0000000), wk =   0.2222222

     Largest allocated arrays     est. size (Mb)     dimensions
     Largest temporary arrays     est. size (Mb)     dimensions

     Initial potential from superposition of free atoms
     Check: negative starting charge=(component1):   -0.000953
     Check: negative starting charge=(component2):   -0.000513

     starting charge  359.99096, renormalised to  360.00000

     negative rho (up, down):  9.535E-04 5.134E-04

     Adding external electric field

     Computed dipole along edir(3) :
        Dipole                0.0000 Ry au,          0.0000 Debye
        Dipole field          0.0000 Ry au

        Potential amp.       -0.0000 Ry
        Total length         73.6798 bohr

[...]

     Starting wfc are  324 randomized atomic wfcs

     Self-consistent Calculation

     iteration #  1     ecut=    44.10 Ry     beta=0.10
     Davidson diagonalization with overlap
     ethr =  1.00E-02,  avg # of iterations =  8.4

[...]

     Magnetic moment per site:
     atom:    1    charge:    3.9313    magn:    1.1504    constr:    0.0000
     atom:    2    charge:    3.9312    magn:    1.1504    constr:    0.0000
     atom:    3    charge:    3.9313    magn:    1.1504    constr:    0.0000
     atom:    4    charge:    3.9526    magn:    1.1272    constr:    0.0000
     atom:    5    charge:    3.9526    magn:    1.1272    constr:    0.0000
     atom:    6    charge:    3.9526    magn:    1.1272    constr:    0.0000
     atom:    7    charge:    3.9646    magn:    1.1150    constr:    0.0000
     atom:    8    charge:    3.9645    magn:    1.1150    constr:    0.0000
     atom:    9    charge:    3.9646    magn:    1.1150    constr:    0.0000
     atom:   10    charge:    3.9717    magn:    1.1109    constr:    0.0000
     atom:   11    charge:    3.9717    magn:    1.1109    constr:    0.0000
     atom:   12    charge:    3.9716    magn:    1.1109    constr:    0.0000
     atom:   13    charge:    3.9738    magn:    1.1075    constr:    0.0000
     atom:   14    charge:    3.9738    magn:    1.1075    constr:    0.0000
     atom:   15    charge:    3.9738    magn:    1.1076    constr:    0.0000
     atom:   16    charge:    3.9752    magn:    1.1060    constr:    0.0000
     atom:   17    charge:    3.9752    magn:    1.1060    constr:    0.0000
     atom:   18    charge:    3.9752    magn:    1.1060    constr:    0.0000
     atom:   19    charge:    3.9747    magn:    1.1059    constr:    0.0000
     atom:   20    charge:    3.9747    magn:    1.1059    constr:    0.0000
     atom:   21    charge:    3.9747    magn:    1.1059    constr:    0.0000
     atom:   22    charge:    3.9738    magn:    1.1075    constr:    0.0000
     atom:   23    charge:    3.9738    magn:    1.1075    constr:    0.0000
     atom:   24    charge:    3.9738    magn:    1.1076    constr:    0.0000
     atom:   25    charge:    3.9697    magn:    1.1103    constr:    0.0000
     atom:   26    charge:    3.9697    magn:    1.1103    constr:    0.0000
     atom:   27    charge:    3.9697    magn:    1.1103    constr:    0.0000
     atom:   28    charge:    3.9625    magn:    1.1144    constr:    0.0000
     atom:   29    charge:    3.9625    magn:    1.1144    constr:    0.0000
     atom:   30    charge:    3.9625    magn:    1.1144    constr:    0.0000
     atom:   31    charge:    3.9526    magn:    1.1272    constr:    0.0000
     atom:   32    charge:    3.9526    magn:    1.1272    constr:    0.0000
     atom:   33    charge:    3.9526    magn:    1.1272    constr:    0.0000
     atom:   34    charge:    3.9297    magn:    1.1500    constr:    0.0000
     atom:   35    charge:    3.9297    magn:    1.1500    constr:    0.0000
     atom:   36    charge:    3.9297    magn:    1.1500    constr:    0.0000

     total energy              =   -3619.25099056 Ry
     Harris-Foulkes estimate   =   -3621.47019142 Ry
     estimated scf accuracy    <      16.88293533 Ry

     total magnetization       =    36.51 Bohr mag/cell
     absolute magnetization    =    36.51 Bohr mag/cell

[...]

     iteration # 16     ecut=    44.10 Ry     beta=0.10
     Davidson diagonalization with overlap
     c_bands:  2 eigenvalues not converged
     ethr =  1.26E-05,  avg # of iterations =  3.0

[...]

     End of self-consistent calculation

 ------ SPIN UP ------------

          k = 0.0000 0.0000 0.0000 ( 62137 PWs)   bands (ev):

    -9.0761  -7.8233  -6.5864  -6.5864  -6.2375  -5.7718  -5.7635  -5.6466
    -5.6466  -5.1173  -5.0033  -4.9321  -4.8396  -4.8396  -4.8270  -4.8270
    -4.7753  -4.6299  -4.6299  -4.5594  -4.5029  -4.4573  -4.4573  -4.4522
    -4.4522  -4.3962  -4.3283  -4.3283  -4.3264  -4.3264  -4.2737  -4.2625
    -4.2625  -4.1815  -4.1815  -4.0835  -4.0823  -4.0823  -3.9304  -3.9304
    -3.8645  -3.8645  -3.8524  -3.8524  -3.6836  -3.6836  -3.5924  -3.5924
    -3.5153  -3.5153  -3.5072  -3.4770  -3.4770  -3.4498  -3.4498  -3.4075
    -3.3950  -3.3950  -3.3763  -3.3605  -3.3033  -3.2937  -3.2937  -3.2345
    -3.2345  -3.2169  -3.1824  -3.1824  -3.1501  -3.0708  -3.0618  -3.0618
    -3.0403  -3.0218  -3.0218  -2.9627  -2.9032  -2.9032  -2.9025  -2.8856
    -2.8585  -2.8509  -2.8478  -2.8478  -2.8316  -2.8205  -2.8205  -2.8092
    -2.8091  -2.7577  -2.6885  -2.6837  -2.6796  -2.6635  -2.6442  -2.6384
    -2.6384  -2.6297  -2.6297  -2.6288  -2.5885  -2.5885  -2.5771  -2.5771
    -2.5734  -2.4926  -2.4781  -2.4781  -2.4410  -2.4410  -2.3883  -2.3584
    -2.3584  -2.3529  -2.2603  -2.2603  -2.2314  -2.2314  -2.2225  -2.2225
    -2.1947  -2.1495  -2.1495  -2.1295  -2.1077  -2.0799  -1.9817  -1.9817
    -1.9785  -1.9785  -1.9676  -1.9560  -1.8981  -1.8981  -1.8897  -1.8620
    -1.8059  -1.7991  -1.7991  -1.7825  -1.7437  -1.7437  -1.7357  -1.7314
    -1.7314  -1.7067  -1.6771  -1.6771  -1.6611  -1.6611  -1.6524  -1.6524
    -1.6355  -1.6292  -1.6292  -1.6242  -1.5916  -1.5916  -1.5783  -1.5597
    -1.5597  -1.5130  -1.5130  -1.5085  -1.4709  -1.4709  -1.4184  -1.3919
    -1.3919  -1.3879  -1.3879  -1.3717  -1.3579  -1.3579  -1.3298  -1.3298
    -1.3257  -1.3257  -1.2838  -1.2838  -1.2751  -1.2685  -1.2637  -1.2637
    -1.2505  -1.2395  -1.2232  -1.2005  -1.1472  -1.1087  -0.7168  -0.7163
    -0.6153  -0.6153   0.0656   0.4212   0.4212   0.4935   0.5289   0.5295
     0.5295   0.8663   0.8663   1.1659   1.1659   1.2884   1.2884   1.6605
     1.7114   2.2377   2.5627   2.5627   2.8217   2.8217   2.8457   2.8457
     2.9821   3.4389   3.5258   3.6722   3.9430   3.9430   3.9516   4.2144
     4.6831   4.7530   4.7530   4.8061   4.8061   5.0625   5.0625   5.0835
     5.6145   5.8878   5.8878   5.9836   5.9836   6.1649   6.1649   6.1812
     6.1918   6.1918   6.2093   6.4818   6.4818   6.4974   6.6255   6.6255
     6.7660   6.7660   6.9765   7.1969   7.1969   7.2506   7.2506   7.2687
     7.2990   7.3716   7.4179   7.5062   7.5064   7.5064   7.5792   7.6047
     7.6885   7.6885   7.7146   8.0376   8.0978   8.1155   8.1155   8.1405
     8.3424   8.5259   8.5259   8.6451   8.7542   8.7543   8.8369   8.8370

[...]

 ------ SPIN DOWN ----------

[...]

     the Fermi energy is    -0.6601 ev

!    total energy              =   -3622.79225367 Ry
     Harris-Foulkes estimate   =   -3622.79225372 Ry
     estimated scf accuracy    <       0.00000050 Ry

     The total energy is the sum of the following terms:

     one-electron contribution =  -75866.13471825 Ry
     hartree contribution      =   38294.54288135 Ry
     xc contribution           =   -1505.37442720 Ry
     ewald contribution        =   35454.33800876 Ry
     electric field correction =       0.00000000 Ry
     smearing contrib. (-TS)   =      -0.16399831 Ry

[...]

     convergence has been achieved in  48 iterations

     Forces acting on atoms (Ry/au):

     negative rho (up, down):  7.483E-04 6.021E-04
     atom    1 type  1   force =    -0.00622203   -0.00011416   -0.02116144
     atom    2 type  1   force =    -0.00621721    0.00003953   -0.02110187
     atom    3 type  1   force =    -0.00622239    0.00007307   -0.02116635
     atom    4 type  1   force =     0.00562100   -0.00003107   -0.00319073
     atom    5 type  1   force =     0.00559761   -0.00009461   -0.00314220
     atom    6 type  1   force =     0.00561100    0.00012521   -0.00313071
     atom    7 type  1   force =     0.00187396   -0.00012527    0.01019961
     atom    8 type  1   force =     0.00187262    0.00001777    0.01025445
     atom    9 type  1   force =     0.00186350    0.00010631    0.01023328
     atom   10 type  1   force =     0.00265855   -0.00001021    0.01154425
     atom   11 type  1   force =     0.00266384   -0.00012788    0.01152492
     atom   12 type  1   force =     0.00266270    0.00013779    0.01158163
     atom   13 type  1   force =    -0.00402600   -0.00012515    0.00046680
     atom   14 type  1   force =    -0.00402742   -0.00001543    0.00049835
     atom   15 type  1   force =    -0.00402760    0.00014096    0.00052266
     atom   16 type  1   force =    -0.00089596    0.00003342    0.00003402
     atom   17 type  1   force =    -0.00089247   -0.00014822    0.00000190
     atom   18 type  1   force =    -0.00089891    0.00011523    0.00005867
     atom   19 type  1   force =     0.00088301   -0.00010290   -0.00027192
     atom   20 type  1   force =     0.00088602   -0.00005160   -0.00026294
     atom   21 type  1   force =     0.00088439    0.00015451   -0.00022546
     atom   22 type  1   force =     0.00408857    0.00006893   -0.00057214
     atom   23 type  1   force =     0.00409042   -0.00015936   -0.00060642
     atom   24 type  1   force =     0.00408923    0.00009139   -0.00057093
     atom   25 type  1   force =    -0.00275911   -0.00007768   -0.01157793
     atom   26 type  1   force =    -0.00276429   -0.00007794   -0.01159176
     atom   27 type  1   force =    -0.00276500    0.00015585   -0.01155720
     atom   28 type  1   force =    -0.00184541    0.00007474   -0.01012418
     atom   29 type  1   force =    -0.00184700   -0.00013641   -0.01016347
     atom   30 type  1   force =    -0.00184619    0.00006265   -0.01017262
     atom   31 type  1   force =    -0.00552782   -0.00005234    0.00329932
     atom   32 type  1   force =    -0.00550739   -0.00007750    0.00323327
     atom   33 type  1   force =    -0.00551306    0.00013024    0.00326892
     atom   34 type  1   force =     0.00615424    0.00006657    0.02132491
     atom   35 type  1   force =     0.00615346   -0.00010750    0.02128925
     atom   36 type  1   force =     0.00615117    0.00004103    0.02125407

     Total force =     0.069096     Total SCF correction =     0.001958
 !ASE

     Writing output data file calc.save
     Check: negative starting charge=(component1):   -0.001467
     NEW-OLD atomic charge density approx. for the potential
     Check: negative starting charge=(component1):   -0.001497

[...]

     Writing output data file calc.save
     Check: negative starting charge=(component1):   -0.001495
     NEW-OLD atomic charge density approx. for the potential
     Check: negative starting charge=(component1):   -0.001493

[...]

     Self-consistent Calculation

[...]

     total energy              =   -3622.80136089 Ry
     Harris-Foulkes estimate   =   -3622.80136083 Ry
     estimated scf accuracy    <       0.00000075 Ry

[...]

     iteration # 22     ecut=    44.10 Ry     beta=0.10
     Davidson diagonalization with overlap
     ethr =  2.09E-10,  avg # of iterations =  1.0

     negative rho (up, down):  7.635E-04 6.147E-04

[...]

     Adding external electric field

     Computed dipole along edir(3) :
        Dipole               -0.0251 Ry au,         -0.0638 Debye
        Dipole field         -0.0000 Ry au

        Potential amp.        0.0037 Ry
        Total length         73.6798 bohr

     Magnetic moment per site:
     atom:    1    charge:    3.8395    magn:    0.4043    constr:    0.0000
     atom:    2    charge:    3.8389    magn:    0.4043    constr:    0.0000
     atom:    3    charge:    3.8383    magn:    0.4043    constr:    0.0000
     atom:    4    charge:    3.9627    magn:    0.4111    constr:    0.0000
     atom:    5    charge:    3.9628    magn:    0.4111    constr:    0.0000
     atom:    6    charge:    3.9627    magn:    0.4111    constr:    0.0000
     atom:    7    charge:    3.9175    magn:    0.3876    constr:    0.0000
     atom:    8    charge:    3.9175    magn:    0.3877    constr:    0.0000
     atom:    9    charge:    3.9176    magn:    0.3877    constr:    0.0000
     atom:   10    charge:    3.9626    magn:    0.3879    constr:    0.0000
     atom:   11    charge:    3.9625    magn:    0.3879    constr:    0.0000
     atom:   12    charge:    3.9625    magn:    0.3880    constr:    0.0000
     atom:   13    charge:    3.9679    magn:    0.3890    constr:    0.0000
     atom:   14    charge:    3.9679    magn:    0.3891    constr:    0.0000
     atom:   15    charge:    3.9679    magn:    0.3891    constr:    0.0000
     atom:   16    charge:    3.9655    magn:    0.3892    constr:    0.0000
     atom:   17    charge:    3.9656    magn:    0.3892    constr:    0.0000
     atom:   18    charge:    3.9653    magn:    0.3893    constr:    0.0000
     atom:   19    charge:    3.9683    magn:    0.3866    constr:    0.0000
     atom:   20    charge:    3.9682    magn:    0.3867    constr:    0.0000
     atom:   21    charge:    3.9682    magn:    0.3867    constr:    0.0000
     atom:   22    charge:    3.9697    magn:    0.3879    constr:    0.0000
     atom:   23    charge:    3.9698    magn:    0.3879    constr:    0.0000
     atom:   24    charge:    3.9697    magn:    0.3879    constr:    0.0000
     atom:   25    charge:    3.9686    magn:    0.3887    constr:    0.0000
     atom:   26    charge:    3.9685    magn:    0.3887    constr:    0.0000
     atom:   27    charge:    3.9685    magn:    0.3887    constr:    0.0000
     atom:   28    charge:    3.9689    magn:    0.3952    constr:    0.0000
     atom:   29    charge:    3.9689    magn:    0.3951    constr:    0.0000
     atom:   30    charge:    3.9688    magn:    0.3952    constr:    0.0000
     atom:   31    charge:    3.9747    magn:    0.4135    constr:    0.0000
     atom:   32    charge:    3.9746    magn:    0.4136    constr:    0.0000
     atom:   33    charge:    3.9746    magn:    0.4136    constr:    0.0000
     atom:   34    charge:    3.9839    magn:    0.4236    constr:    0.0000
     atom:   35    charge:    3.9840    magn:    0.4236    constr:    0.0000
     atom:   36    charge:    3.9838    magn:    0.4237    constr:    0.0000

     End of self-consistent calculation

 ------ SPIN UP ------------

[...]

 ------ SPIN DOWN ----------

[...]

          k = 0.0541-0.0442 0.0000 ( 62079 PWs)   bands (ev):

    -8.4100  -7.5541  -7.2909  -7.0712  -6.5082  -6.3178  -6.1338  -5.6056
    -5.4908  -5.0649  -4.9613  -4.9115  -4.7272  -4.6561  -4.6544  -4.5944
    -4.5323  -4.4379  -4.3421  -4.2592  -4.2225  -4.1185  -4.1164  -4.0694
    -3.9726  -3.9461  -3.9424  -3.8875  -3.8854  -3.8664  -3.7697  -3.7693
    -3.7380  -3.7078  -3.5753  -3.5230  -3.4955  -3.4579  -3.4557  -3.4171
    -3.4116  -3.3916  -3.3295  -3.2846  -3.2643  -3.2590  -3.2459  -3.1843
    -3.1442  -3.1009  -3.0729  -3.0404  -3.0234  -2.9863  -2.9372  -2.9117
    -2.8823  -2.8804  -2.8208  -2.8076  -2.7491  -2.7352  -2.6925  -2.6770
    -2.6759  -2.6234  -2.6114  -2.6082  -2.5829  -2.5319  -2.5317  -2.5219
    -2.4679  -2.4441  -2.4414  -2.4037  -2.3935  -2.3836  -2.3585  -2.3558
    -2.3477  -2.3200  -2.3106  -2.2974  -2.2883  -2.2373  -2.2126  -2.2064
    -2.1611  -2.1601  -2.1393  -2.1261  -2.1133  -2.0879  -2.0666  -2.0454
    -2.0340  -2.0133  -1.9829  -1.9807  -1.9594  -1.9511  -1.9258  -1.8865
    -1.8729  -1.8569  -1.8098  -1.8040  -1.7710  -1.7521  -1.7424  -1.7244
    -1.7184  -1.7136  -1.6860  -1.6803  -1.6396  -1.6085  -1.5979  -1.5964
    -1.5402  -1.5273  -1.5213  -1.5132  -1.5105  -1.4680  -1.4475  -1.4322
    -1.4235  -1.3752  -1.3570  -1.3310  -1.3122  -1.3092  -1.2940  -1.2230
    -1.2225  -1.2046  -1.1933  -1.1886  -1.1488  -1.1261  -1.1108  -1.0842
    -1.0788  -1.0649  -1.0513  -1.0332  -1.0052  -0.9906  -0.9765  -0.9608
    -0.9580  -0.9311  -0.8981  -0.8874  -0.8703  -0.8466  -0.8443  -0.8419
    -0.8281  -0.7822  -0.7820  -0.7566  -0.7476  -0.7187  -0.6868  -0.6818
    -0.6452  -0.6375  -0.6119  -0.5923  -0.5628  -0.5509  -0.5389  -0.5314
    -0.5289  -0.5214  -0.5146  -0.5112  -0.4965  -0.4675  -0.4496  -0.4440
    -0.4409  -0.3934  -0.3864  -0.3463  -0.3292  -0.3258  -0.3154  -0.1453
    -0.0794   0.0421   0.2291   0.4804   0.5414   0.6103   0.7339   0.8008
     0.8981   0.9475   1.4109   1.5237   1.8651   1.9976   2.0613   2.0699
     2.2078   2.3422   2.7853   3.0175   3.1320   3.2781   3.3057   3.6737
     4.0018   4.1336   4.2735   4.3278   4.3329   4.4965   4.5825   4.6293
     4.8645   4.9944   5.0109   5.0906   5.1711   5.2053   5.3488   5.3634
     5.5074   5.5143   5.5693   5.6473   5.7432   5.8129   5.8889   5.9148
     5.9376   6.0601   6.1337   6.2317   6.2428   6.3090   6.3929   6.4551
     6.5243   6.5686   6.5699   6.6580   6.6597   6.7196   6.7442   6.8574
     6.9388   7.0804   7.0860   7.1229   7.1442   7.1451   7.3902   7.5492
     7.6292   7.7264   7.8301   7.8947   7.9370   7.9446   8.0526   8.0754
     8.1392   8.2126   8.3355   8.3356   8.5334   8.6028   8.6661   8.7036

     the Fermi energy is    -0.6806 ev

!    total energy              =   -3622.80136066 Ry
     Harris-Foulkes estimate   =   -3622.80136098 Ry
     estimated scf accuracy    <       0.00000071 Ry

     The total energy is the sum of the following terms:

     one-electron contribution =  -76027.03321722 Ry
     hartree contribution      =   38374.65364515 Ry
     xc contribution           =   -1505.45732700 Ry
     ewald contribution        =   35535.19738906 Ry
     electric field correction =       0.00000063 Ry
     smearing contrib. (-TS)   =      -0.16185128 Ry

     total magnetization       =    23.51 Bohr mag/cell
     absolute magnetization    =    27.16 Bohr mag/cell

     convergence has been achieved in  22 iterations

     Forces acting on atoms (Ry/au):

     negative rho (up, down):  7.635E-04 6.147E-04
     atom    1 type  1   force =    -0.00014510    0.00001384   -0.00058486
     atom    2 type  1   force =    -0.00012543    0.00017841   -0.00065008
     atom    3 type  1   force =    -0.00011401   -0.00019207   -0.00053715
     atom    4 type  1   force =    -0.00047945   -0.00017279   -0.00157849
     atom    5 type  1   force =    -0.00041339    0.00019382   -0.00161381
     atom    6 type  1   force =    -0.00045699   -0.00002045   -0.00165109
     atom    7 type  1   force =    -0.00094735   -0.00001346   -0.00038042
     atom    8 type  1   force =    -0.00094088    0.00023039   -0.00042910
     atom    9 type  1   force =    -0.00089859   -0.00021684   -0.00042210
     atom   10 type  1   force =    -0.00039480   -0.00016475   -0.00056303
     atom   11 type  1   force =    -0.00044346    0.00022947   -0.00043238
     atom   12 type  1   force =    -0.00040334   -0.00006509   -0.00066131
     atom   13 type  1   force =     0.00072522    0.00000396    0.00038729
     atom   14 type  1   force =     0.00073451    0.00025575    0.00029466
     atom   15 type  1   force =     0.00072972   -0.00026047    0.00021897
     atom   16 type  1   force =     0.00117223   -0.00029858   -0.00008869
     atom   17 type  1   force =     0.00123627    0.00027278   -0.00006354
     atom   18 type  1   force =     0.00115090    0.00002514   -0.00017348
     atom   19 type  1   force =     0.00080457   -0.00004702   -0.00071076
     atom   20 type  1   force =     0.00080716    0.00030889   -0.00068416
     atom   21 type  1   force =     0.00081037   -0.00026191   -0.00069109
     atom   22 type  1   force =     0.00337079   -0.00029295   -0.00065952
     atom   23 type  1   force =     0.00336609    0.00025680   -0.00065497
     atom   24 type  1   force =     0.00336732    0.00003624   -0.00062459
     atom   25 type  1   force =    -0.00288618   -0.00003608   -0.00944815
     atom   26 type  1   force =    -0.00288361    0.00029317   -0.00941717
     atom   27 type  1   force =    -0.00288468   -0.00025693   -0.00941686
     atom   28 type  1   force =    -0.00191201   -0.00024925   -0.01058923
     atom   29 type  1   force =    -0.00191551    0.00021996   -0.01059555
     atom   30 type  1   force =    -0.00189813    0.00002944   -0.01052298
     atom   31 type  1   force =    -0.00555228   -0.00002808    0.00295580
     atom   32 type  1   force =    -0.00558642    0.00023552    0.00305155
     atom   33 type  1   force =    -0.00559249   -0.00020760    0.00306181
     atom   34 type  1   force =     0.00619863   -0.00020728    0.02125957
     atom   35 type  1   force =     0.00619812    0.00018171    0.02124535
     atom   36 type  1   force =     0.00620222    0.00002631    0.02136958

     Total force =     0.047896     Total SCF correction =     0.003374
 !ASE

     Writing output data file calc.save

     General routines

     Parallel routines

   This run was terminated on:  13:15:33  23Mar2018

   JOB DONE.