     Program PWSCF v.5.1rc2 (svn rev. ) starts on 18Mar2017 at 15:43:52

     Current dimensions of program PWSCF are:
     Max number of different atomic species (ntypx) = 10
     Max number of k-points (npk) =  40000
     Max angular momentum in pseudopotentials (lmaxx) =  3
     Presently no symmetry can be used with electric field

     IMPORTANT: XC functional enforced from input :
     Exchange-correlation      = RPBE ( 1  4 28  4 0)
     Any further DFT definition will be discarded
     Please, verify this is what you really want

               file Ni.UPF: wavefunction(s)  3D renormalized

     Subspace diagonalization in iterative solution of the eigenvalue problem:
     a serial algorithm will be used

     Generating pointlists ...
     new r_m :   0.4125 (alat units)  0.7795 (a.u.) for type    1
     new r_m :   0.4125 (alat units)  0.7795 (a.u.) for type    2

     bravais-lattice index     =            0
     lattice parameter (alat)  =       1.8897  a.u.
     unit-cell volume          =    7046.4111 (a.u.)^3
     number of atoms/cell      =           45
     number of atomic types    =            2
     number of electrons       =       414.00
     number of Kohn-Sham states=          307
     kinetic-energy cutoff     =      44.0992  Ry
     charge density cutoff     =     440.9919  Ry
     convergence threshold     =      7.3E-07
     mixing beta               =       0.1000
     number of iterations used =           10  plain     mixing
     Exchange-correlation      = RPBE ( 1  4 28  4 0)
     nstep                     =           50

     celldm(1)=   1.889726  celldm(2)=   0.000000  celldm(3)=   0.000000
     celldm(4)=   0.000000  celldm(5)=   0.000000  celldm(6)=   0.000000

     crystal axes: (cart. coord. in units of alat)
               a(1) = (   7.548011   0.000000   0.000000 )
               a(2) = (  -3.774005   6.536769   0.000000 )
               a(3) = (   0.000000   0.000000  21.162925 )

     reciprocal axes: (cart. coord. in units 2 pi/alat)
               b(1) = (  0.132485  0.076490  0.000000 )
               b(2) = (  0.000000  0.152981  0.000000 )
               b(3) = (  0.000000  0.000000  0.047252 )

     PseudoPot. # 1 for Ni read from file:
     /home/alatimer/bin/psp/esp_psp_w_gbrvRu/Ni.UPF
     MD5 check sum: 8b2449ee0060d9c33484ccd47bb60870
     Pseudo is Ultrasoft + core correction, Zval = 10.0
     Generated using "atomic" code by A. Dal Corso  v.5.0.2 svn rev. 9415
     Using radial grid of 1195 points,  6 beta functions with:
                l(1) =   0
                l(2) =   0
                l(3) =   1
                l(4) =   1
                l(5) =   2
                l(6) =   2
     Q(r) pseudized with 0 coefficients

     PseudoPot. # 2 for  O read from file:
     /home/alatimer/bin/psp/esp_psp_w_gbrvRu/O.UPF
     MD5 check sum: e057bbcf3229fb5d8c36c0c92f9568b4
     Pseudo is Ultrasoft + core correction, Zval =  6.0
     Generated using "atomic" code by A. Dal Corso  v.5.0.2 svn rev. 9415
     Using radial grid of 1095 points,  4 beta functions with:
                l(1) =   0
                l(2) =   0
                l(3) =   1
                l(4) =   1
     Q(r) pseudized with 0 coefficients

     atomic species   valence    mass     pseudopotential
        Ni1           10.00    58.69340     Ni( 1.00)
        O1             6.00    15.99940      O( 1.00)

     Starting magnetic structure
     atomic species   magnetization
        Ni1          0.300
        O1           0.500

     No symmetry found

   Cartesian axes

     site n.     atom                  positions (alat units)
         1           Ni1 tau(   1) = (   0.0000000   0.0000000   7.5000000  )
         2           Ni1 tau(   2) = (   1.2580018   0.7263077   9.5543084  )
         3           Ni1 tau(   3) = (   0.0000000   1.4526154  11.6086168  )
         4           Ni1 tau(   4) = (   1.2580018   2.1789231  13.6629252  )
         5           Ni1 tau(   5) = (  -1.2580018   2.1789231   7.5000000  )
         6           Ni1 tau(   6) = (   0.0000000   2.9052308   9.5543084  )
         7           Ni1 tau(   7) = (  -1.2580018   3.6315385  11.6086168  )
         8           Ni1 tau(   8) = (  -0.0000000   4.3578462  13.6629252  )
         9           Ni1 tau(   9) = (  -2.5160037   4.3578462   7.5000000  )
        10           Ni1 tau(  10) = (  -1.2580018   5.0841539   9.5543084  )
        11           Ni1 tau(  11) = (  -2.5160037   5.8104616  11.6086168  )
        12           Ni1 tau(  12) = (  -1.2580018   6.5367693  13.6629252  )
        13           Ni1 tau(  13) = (   2.5160037   0.0000000   7.5000000  )
        14           Ni1 tau(  14) = (   3.7740055   0.7263077   9.5543084  )
        15           Ni1 tau(  15) = (   2.5160037   1.4526154  11.6086168  )
        16           Ni1 tau(  16) = (   3.7740055   2.1789231  13.6629252  )
        17           Ni1 tau(  17) = (   1.2580018   2.1789231   7.5000000  )
        18           Ni1 tau(  18) = (   2.5160037   2.9052308   9.5543084  )
        19           Ni1 tau(  19) = (   1.2580018   3.6315385  11.6086168  )
        20           Ni1 tau(  20) = (   2.5160037   4.3578462  13.6629252  )
        21           Ni1 tau(  21) = (  -0.0000000   4.3578462   7.5000000  )
        22           Ni1 tau(  22) = (   1.2580018   5.0841539   9.5543084  )
        23           Ni1 tau(  23) = (  -0.0000000   5.8104616  11.6086168  )
        24           Ni1 tau(  24) = (   1.2580018   6.5367693  13.6629252  )
        25           Ni1 tau(  25) = (   5.0320073   0.0000000   7.5000000  )
        26           Ni1 tau(  26) = (   6.2900092   0.7263077   9.5543084  )
        27           Ni1 tau(  27) = (   5.0320073   1.4526154  11.6086168  )
        28           Ni1 tau(  28) = (   6.2900092   2.1789231  13.6629252  )
        29           Ni1 tau(  29) = (   3.7740055   2.1789231   7.5000000  )
        30           Ni1 tau(  30) = (   5.0320073   2.9052308   9.5543084  )
        31           Ni1 tau(  31) = (   3.7740055   3.6315385  11.6086168  )
        32           Ni1 tau(  32) = (   5.0320073   4.3578462  13.6629252  )
        33           Ni1 tau(  33) = (   2.5160037   4.3578462   7.5000000  )
        34           Ni1 tau(  34) = (   3.7740055   5.0841539   9.5543084  )
        35           Ni1 tau(  35) = (   2.5160037   5.8104616  11.6086168  )
        36           Ni1 tau(  36) = (   3.7740055   6.5367693  13.6629252  )
        37           O1  tau(  37) = (   3.7935804   5.2277866  14.8463543  )
        38           O1  tau(  38) = (   1.3203265   5.1554212  14.8463543  )
        39           O1  tau(  39) = (   3.7363302   0.7975750  14.8463543  )
        40           O1  tau(  40) = (   6.2523338   0.7975750  14.8463543  )
        41           O1  tau(  41) = (   1.2203265   0.7975750  14.8463543  )
        42           O1  tau(  42) = (  -1.2956772   5.1554212  14.8463543  )
        43           O1  tau(  43) = (   5.0943320   2.9764981  14.8463543  )
        44           O1  tau(  44) = (  -0.0376753   2.9764981  14.8463543  )
        45           O1  tau(  45) = (   2.5580018   2.9789231  14.8629252  )

     number of k points=    10  Fermi-Dirac smearing, width (Ry)=  0.0073
                       cart. coord. in units 2pi/alat
        k(    1) = (   0.0000000   0.0000000   0.0000000), wk =   0.1111111
        k(    2) = (   0.0000000   0.0509936   0.0000000), wk =   0.2222222
        k(    3) = (   0.0441617   0.0254968   0.0000000), wk =   0.2222222
        k(    4) = (   0.0441617   0.0764904   0.0000000), wk =   0.2222222
        k(    5) = (   0.0441617  -0.0254968   0.0000000), wk =   0.2222222
        k(    6) = (   0.0000000   0.0000000   0.0000000), wk =   0.1111111
        k(    7) = (   0.0000000   0.0509936   0.0000000), wk =   0.2222222
        k(    8) = (   0.0441617   0.0254968   0.0000000), wk =   0.2222222
        k(    9) = (   0.0441617   0.0764904   0.0000000), wk =   0.2222222
        k(   10) = (   0.0441617  -0.0254968   0.0000000), wk =   0.2222222

     Largest allocated arrays     est. size (Mb)     dimensions
     Largest temporary arrays     est. size (Mb)     dimensions

     Check: negative/imaginary core charge=   -0.000010    0.000000

     Initial potential from superposition of free atoms
     Check: negative starting charge=(component1):   -0.000487
     Check: negative starting charge=(component2):   -0.000223

     starting charge  413.99095, renormalised to  414.00000

     negative rho (up, down):  4.874E-04 2.232E-04

     Adding external electric field

     Computed dipole along edir(3) :
        Dipole               -0.0094 Ry au,         -0.0239 Debye
        Dipole field         -0.0000 Ry au

        Potential amp.        0.0013 Ry
        Total length         38.9923 bohr

[...]

     Starting wfc are  360 randomized atomic wfcs

     Self-consistent Calculation

     iteration #  1     ecut=    44.10 Ry     beta=0.10
     Davidson diagonalization with overlap
     ethr =  1.00E-02,  avg # of iterations =  7.4

[...]

     Magnetic moment per site:
     atom:    1    charge:    3.9465    magn:    1.1285    constr:    0.0000
     atom:    2    charge:    3.9675    magn:    1.1116    constr:    0.0000
     atom:    3    charge:    3.9725    magn:    1.1065    constr:    0.0000
     atom:    4    charge:    3.9374    magn:    1.1518    constr:    0.0000
     atom:    5    charge:    3.9465    magn:    1.1285    constr:    0.0000
     atom:    6    charge:    3.9674    magn:    1.1116    constr:    0.0000
     atom:    7    charge:    3.9724    magn:    1.1068    constr:    0.0000
     atom:    8    charge:    3.9377    magn:    1.1515    constr:    0.0000
     atom:    9    charge:    3.9464    magn:    1.1285    constr:    0.0000
     atom:   10    charge:    3.9675    magn:    1.1116    constr:    0.0000
     atom:   11    charge:    3.9725    magn:    1.1066    constr:    0.0000
     atom:   12    charge:    3.9367    magn:    1.1530    constr:    0.0000
     atom:   13    charge:    3.9464    magn:    1.1285    constr:    0.0000
     atom:   14    charge:    3.9674    magn:    1.1116    constr:    0.0000
     atom:   15    charge:    3.9724    magn:    1.1068    constr:    0.0000
     atom:   16    charge:    3.9370    magn:    1.1525    constr:    0.0000
     atom:   17    charge:    3.9464    magn:    1.1285    constr:    0.0000
     atom:   18    charge:    3.9674    magn:    1.1116    constr:    0.0000
     atom:   19    charge:    3.9723    magn:    1.1069    constr:    0.0000
     atom:   20    charge:    3.9366    magn:    1.1529    constr:    0.0000
     atom:   21    charge:    3.9464    magn:    1.1285    constr:    0.0000
     atom:   22    charge:    3.9674    magn:    1.1116    constr:    0.0000
     atom:   23    charge:    3.9724    magn:    1.1067    constr:    0.0000
     atom:   24    charge:    3.9369    magn:    1.1528    constr:    0.0000
     atom:   25    charge:    3.9465    magn:    1.1284    constr:    0.0000
     atom:   26    charge:    3.9674    magn:    1.1117    constr:    0.0000
     atom:   27    charge:    3.9726    magn:    1.1065    constr:    0.0000
[...]

     Forces acting on atoms (Ry/au):

     negative rho (up, down):  3.873E-04 3.400E-04
     atom    1 type  1   force =     0.00000918    0.00012526    0.00449467
     atom    2 type  1   force =     0.00011074    0.00011181   -0.00523002
     atom    3 type  1   force =     0.00004153   -0.00012285   -0.00832725
     atom    4 type  1   force =     0.00084663    0.02871211    0.05542053
     atom    5 type  1   force =     0.00008083   -0.00010637    0.00449063
     atom    6 type  1   force =     0.00000051    0.00021536   -0.00532875
     atom    7 type  1   force =     0.00013446   -0.00032690   -0.00839928
     atom    8 type  1   force =     0.00334753    0.02729540    0.05493892
     atom    9 type  1   force =    -0.00008599    0.00012561    0.00447226
     atom   10 type  1   force =    -0.00024768    0.00024681   -0.00518087
     atom   11 type  1   force =    -0.00000570   -0.00025013   -0.00824701
     atom   12 type  1   force =    -0.00688526    0.02220275    0.04958886
     atom   13 type  1   force =    -0.00000374    0.00006316    0.00447432
     atom   14 type  1   force =     0.00002846    0.00023516   -0.00556084
     atom   15 type  1   force =    -0.00017675   -0.00012868   -0.00809005
     atom   16 type  1   force =     0.00453685    0.02520415    0.05230166
     atom   17 type  1   force =    -0.00006638   -0.00003331    0.00446849
     atom   18 type  1   force =     0.00000873    0.00019477   -0.00552583
     atom   19 type  1   force =     0.00004090   -0.00065531   -0.00817367
     atom   20 type  1   force =     0.01180289    0.01891381    0.05128039
     atom   21 type  1   force =    -0.00000296    0.00010814    0.00446272
     atom   22 type  1   force =     0.00006558    0.00031854   -0.00551159
     atom   23 type  1   force =     0.00020837   -0.00048830   -0.00795321
     atom   24 type  1   force =    -0.00862427    0.02029777    0.04929619
     atom   25 type  1   force =     0.00010640    0.00012022    0.00446036
     atom   26 type  1   force =     0.00021184    0.00016856   -0.00538339
     atom   27 type  1   force =    -0.00025380   -0.00033314   -0.00791310
     atom   28 type  1   force =     0.00319648    0.01931532    0.04108182
     atom   29 type  1   force =     0.00008564    0.00005546    0.00448091
     atom   30 type  1   force =     0.00016631    0.00006984   -0.00543924
     atom   31 type  1   force =     0.00016467   -0.00036003   -0.00776454
     atom   32 type  1   force =    -0.00398832    0.02458640    0.04806431
     atom   33 type  1   force =     0.00007513    0.00015086    0.00451313
     atom   34 type  1   force =    -0.00013308    0.00021795   -0.00537613
     atom   35 type  1   force =     0.00002453   -0.00025603   -0.00821503
     atom   36 type  1   force =    -0.00595204    0.04333161    0.03067638
     atom   37 type  2   force =    -0.00465023   -0.06110486   -0.02662992
     atom   38 type  2   force =    -0.02262363   -0.02400568   -0.03963933
     atom   39 type  2   force =     0.01080149   -0.02414428   -0.04030612
     atom   40 type  2   force =     0.00814875   -0.02150120   -0.03821847
     atom   41 type  2   force =     0.01174705   -0.01616418   -0.04025148
     atom   42 type  2   force =     0.01551092   -0.02068543   -0.04105857
     atom   43 type  2   force =    -0.02430363   -0.02041498   -0.03772622
     atom   44 type  2   force =     0.01754521   -0.02038136   -0.04099276
     atom   45 type  2   force =    -0.01104412   -0.02092379   -0.04652390

     Total force =     0.228843     Total SCF correction =     0.002349
 !ASE

     Writing output data file calc.save
     Check: negative starting charge=(component1):   -0.000707
     NEW-OLD atomic charge density approx. for the potential

     Check: negative/imaginary core charge=   -0.000010    0.000000
     Check: negative starting charge=(component1):   -0.000655

[...]

     iteration #  1     ecut=    44.10 Ry     beta=0.10
     Davidson diagonalization with overlap
     c_bands:  4 eigenvalues not converged
     c_bands:  1 eigenvalues not converged
     c_bands:  4 eigenvalues not converged
     ethr =  2.46E-10,  avg # of iterations = 17.2

[...]

     iteration # 33     ecut=    44.10 Ry     beta=0.10
     Davidson diagonalization with overlap
     c_bands:  1 eigenvalues not converged
     ethr =  1.59E-09,  avg # of iterations =  3.7

[...]

     Total force =     0.025704     Total SCF correction =     0.002349
 !ASE

[...]

     Total force =     0.027728     Total SCF correction =     0.002837
     SCF correction compared to forces is large: reduce conv_thr to get better values
 !ASE

[...]

     Writing output data file calc.save
     Check: negative starting charge=(component1):   -0.000690
     NEW-OLD atomic charge density approx. for the potential

     Check: negative/imaginary core charge=   -0.000010    0.000000
     Check: negative starting charge=(component1):   -0.000691

[...]

     Self-consistent Calculation

[...]

     total energy              =   -3925.57421174 Ry
     Harris-Foulkes estimate   =   -3925.57420955 Ry
     estimated scf accuracy    <       0.00000244 Ry

[...]

     iteration # 14     ecut=    44.10 Ry     beta=0.10
     Davidson diagonalization with overlap
     ethr =  5.89E-10,  avg # of iterations =  1.0

     negative rho (up, down):  3.772E-04 3.322E-04

[...]

     Adding external electric field

     Computed dipole along edir(3) :
        Dipole               -1.0221 Ry au,         -2.5978 Debye
        Dipole field         -0.0018 Ry au

        Potential amp.        0.1421 Ry
        Total length         38.9923 bohr

     Magnetic moment per site:
     atom:    1    charge:    3.9715    magn:    0.3836    constr:    0.0000
     atom:    2    charge:    3.9688    magn:    0.3675    constr:    0.0000
     atom:    3    charge:    3.9664    magn:    0.3234    constr:    0.0000
     atom:    4    charge:    3.9055    magn:    0.1161    constr:    0.0000
     atom:    5    charge:    3.9715    magn:    0.3836    constr:    0.0000
     atom:    6    charge:    3.9687    magn:    0.3675    constr:    0.0000
     atom:    7    charge:    3.9662    magn:    0.3245    constr:    0.0000
     atom:    8    charge:    3.9083    magn:    0.1157    constr:    0.0000
     atom:    9    charge:    3.9716    magn:    0.3836    constr:    0.0000
     atom:   10    charge:    3.9688    magn:    0.3675    constr:    0.0000
     atom:   11    charge:    3.9667    magn:    0.3243    constr:    0.0000
     atom:   12    charge:    3.9062    magn:    0.1152    constr:    0.0000
     atom:   13    charge:    3.9716    magn:    0.3835    constr:    0.0000
     atom:   14    charge:    3.9688    magn:    0.3673    constr:    0.0000
     atom:   15    charge:    3.9668    magn:    0.3245    constr:    0.0000
     atom:   16    charge:    3.9067    magn:    0.1167    constr:    0.0000
     atom:   17    charge:    3.9715    magn:    0.3836    constr:    0.0000
     atom:   18    charge:    3.9688    magn:    0.3674    constr:    0.0000
     atom:   19    charge:    3.9665    magn:    0.3245    constr:    0.0000
     atom:   20    charge:    3.9038    magn:    0.1160    constr:    0.0000
     atom:   21    charge:    3.9715    magn:    0.3835    constr:    0.0000
     atom:   22    charge:    3.9687    magn:    0.3674    constr:    0.0000
     atom:   23    charge:    3.9670    magn:    0.3242    constr:    0.0000
     atom:   24    charge:    3.9098    magn:    0.1154    constr:    0.0000
     atom:   25    charge:    3.9715    magn:    0.3836    constr:    0.0000
     atom:   26    charge:    3.9688    magn:    0.3674    constr:    0.0000
     atom:   27    charge:    3.9675    magn:    0.3235    constr:    0.0000
     atom:   28    charge:    3.9062    magn:    0.1147    constr:    0.0000
     atom:   29    charge:    3.9715    magn:    0.3835    constr:    0.0000
     atom:   30    charge:    3.9688    magn:    0.3674    constr:    0.0000
     atom:   31    charge:    3.9675    magn:    0.3239    constr:    0.0000
     atom:   32    charge:    3.9072    magn:    0.1146    constr:    0.0000
     atom:   33    charge:    3.9714    magn:    0.3836    constr:    0.0000
     atom:   34    charge:    3.9688    magn:    0.3674    constr:    0.0000
     atom:   35    charge:    3.9674    magn:    0.3239    constr:    0.0000
     atom:   36    charge:    3.9129    magn:    0.1159    constr:    0.0000
     atom:   37    charge:    1.9558    magn:    0.0326    constr:    0.0000
     atom:   38    charge:    2.0047    magn:    0.0349    constr:    0.0000
     atom:   39    charge:    2.0235    magn:    0.0349    constr:    0.0000
     atom:   40    charge:    2.0238    magn:    0.0337    constr:    0.0000
     atom:   41    charge:    2.0244    magn:    0.0347    constr:    0.0000
     atom:   42    charge:    2.0238    magn:    0.0347    constr:    0.0000
     atom:   43    charge:    2.0052    magn:    0.0339    constr:    0.0000
     atom:   44    charge:    2.0234    magn:    0.0350    constr:    0.0000
     atom:   45    charge:    2.0161    magn:    0.0352    constr:    0.0000

     End of self-consistent calculation

 ------ SPIN UP ------------

[...]

 ------ SPIN DOWN ----------

[...]

          k = 0.0442-0.0255 0.0000 ( 34862 PWs)   bands (ev):

   -18.0631 -17.6293 -17.2750 -17.2712 -16.7999 -16.7956 -16.6969 -16.5407
   -16.5363  -5.7965  -5.2239  -4.8970  -4.8960  -4.8699  -4.7964  -4.7940
    -4.7640  -4.3154  -4.3137  -4.0355  -3.7666  -3.7642  -3.7006  -3.6568
    -3.1787  -3.1715  -3.1407  -3.1393  -3.0517  -2.9901  -2.9848  -2.7364
    -2.7291  -2.6984  -2.6947  -2.6926  -2.6323  -2.5952  -2.5893  -2.4193
    -2.2596  -2.2233  -2.0684  -1.9713  -1.9705  -1.9249  -1.9116  -1.9072
    -1.6555  -1.5505  -1.5498  -1.4290  -1.4254  -1.4216  -1.1882  -1.1830
    -1.1261  -1.0845  -1.0735  -1.0632  -1.0624  -0.9938  -0.9707  -0.9678
    -0.8591  -0.8572  -0.8091  -0.8040  -0.7700  -0.6553  -0.6536  -0.6264
    -0.5555  -0.5545  -0.5327  -0.4873  -0.4826  -0.4063  -0.4037  -0.3926
    -0.3890  -0.3451  -0.3430  -0.3230  -0.2786  -0.2349  -0.2345  -0.2328
    -0.2292  -0.1531  -0.1483  -0.1048  -0.0648  -0.0185  -0.0144  -0.0131
     0.0419   0.0599   0.0755   0.0841   0.1971   0.2001   0.2013   0.2034
     0.2509   0.3315   0.3366   0.3416   0.3605   0.3866   0.3916   0.4218
     0.5376   0.5412   0.5936   0.5938   0.5965   0.6240   0.6303   0.6556
     0.6823   0.6831   0.7140   0.7329   0.7463   0.7505   0.8032   0.8169
     0.8197   0.8203   0.8232   0.9115   0.9131   0.9195   0.9217   0.9248
     0.9303   0.9624   0.9974   1.0076   1.0218   1.0453   1.0475   1.0637
     1.0648   1.1601   1.2048   1.2088   1.2186   1.2362   1.2386   1.2464
     1.3192   1.3215   1.3325   1.3328   1.3330   1.3537   1.3977   1.4077
     1.5395   1.5511   1.5545   1.5794   1.5810   1.5822   1.5848   1.6228
     1.6231   1.6815   1.7184   1.7205   1.7213   1.7660   1.7705   1.7768
     1.8230   1.8246   1.8923   1.8945   1.9952   1.9997   2.0039   2.0048
     2.0635   2.0636   2.1503   2.1510   2.1529   2.1530   2.2166   2.2171
     2.2521   2.2761   2.2998   2.3001   2.3407   2.3420   2.3543   2.4103
     2.4184   2.4439   2.4455   2.4815   2.4895   2.4908   2.5012   2.5313
     2.5327   2.5413   2.5616   2.5625   2.6830   2.6849   2.6896   2.7035
     2.7086   2.7181   2.7195   2.7961   2.8602   2.8611   2.8623   2.9650
     3.0151   3.0458   3.1098   3.1109   3.4107   3.5638   3.6801   3.6837
     3.7295   4.2037   4.2072   4.8310   4.8326   5.1572   5.4209   5.5653
     5.5696   5.6990   5.7071   6.4016   6.4056   7.1289   7.2748   7.2839
     7.5616   8.1689   8.1786   8.2158   8.3155   8.3309   8.6057   8.7744
     8.9024   9.2512   9.2516   9.5093   9.5118   9.5136   9.5594   9.5744
     9.7379   9.8990   9.9193  10.4127  10.4135  10.5649  10.5710  10.5861
    10.5965  10.8088  10.9215  11.0303  11.0315  11.1693  11.1865  11.1950
    11.7350  11.7406  11.9130  11.9150  11.9382  12.0645  12.0734  12.5538
    12.5708  12.5936  12.6055  12.7038  12.8013  12.9478  12.9689  12.9813
    12.9841  13.2035  13.4009  13.4146  13.5715  13.7533  13.7838  13.8105
    13.8243  13.9086  13.9120

     the Fermi energy is     2.3436 ev

!    total energy              =   -3925.57422688 Ry
     Harris-Foulkes estimate   =   -3925.57422736 Ry
     estimated scf accuracy    <       0.00000069 Ry

     The total energy is the sum of the following terms:

     one-electron contribution =  -27239.18152133 Ry
     hartree contribution      =   14043.86887210 Ry
     xc contribution           =   -1585.17780991 Ry
     ewald contribution        =   10855.08433187 Ry
     electric field correction =       0.00186290 Ry
     smearing contrib. (-TS)   =      -0.16996251 Ry

     total magnetization       =    18.09 Bohr mag/cell
     absolute magnetization    =    20.85 Bohr mag/cell

     convergence has been achieved in  14 iterations

     Forces acting on atoms (Ry/au):

     negative rho (up, down):  3.772E-04 3.322E-04
     atom    1 type  1   force =    -0.00017847    0.00007338    0.00422802
     atom    2 type  1   force =    -0.00007386    0.00070022   -0.00523565
     atom    3 type  1   force =    -0.00068470    0.00014843    0.00023138
     atom    4 type  1   force =    -0.00092356   -0.00083003    0.00082622
     atom    5 type  1   force =     0.00003730   -0.00000538    0.00429768
     atom    6 type  1   force =     0.00003336    0.00064181   -0.00520198
     atom    7 type  1   force =    -0.00027383    0.00000684    0.00028180
     atom    8 type  1   force =    -0.00001854    0.00006261    0.00078733
     atom    9 type  1   force =    -0.00009162   -0.00005310    0.00420190
     atom   10 type  1   force =    -0.00001582    0.00041951   -0.00525012
     atom   11 type  1   force =     0.00035610    0.00018623    0.00019738
     atom   12 type  1   force =    -0.00039908   -0.00131482    0.00044022
     atom   13 type  1   force =     0.00003591    0.00004162    0.00411688
     atom   14 type  1   force =     0.00021490    0.00063335   -0.00503842
     atom   15 type  1   force =     0.00010026    0.00023141   -0.00016031
     atom   16 type  1   force =     0.00171444    0.00017879    0.00047310
     atom   17 type  1   force =    -0.00008971    0.00018777    0.00418695
     atom   18 type  1   force =     0.00001276    0.00071689   -0.00514243
     atom   19 type  1   force =    -0.00039927    0.00022059   -0.00015302
     atom   20 type  1   force =     0.00005375   -0.00074592    0.00009080
     atom   21 type  1   force =     0.00013822   -0.00003643    0.00416432
     atom   22 type  1   force =     0.00002507    0.00059064   -0.00515514
     atom   23 type  1   force =     0.00060150    0.00048019    0.00012287
     atom   24 type  1   force =    -0.00045489    0.00010995    0.00024574
     atom   25 type  1   force =     0.00014126    0.00000531    0.00426883
     atom   26 type  1   force =    -0.00002380    0.00058444   -0.00503555
     atom   27 type  1   force =     0.00012381    0.00062802    0.00009877
     atom   28 type  1   force =     0.00067834   -0.00138314   -0.00000045
     atom   29 type  1   force =     0.00005444    0.00015619    0.00424408
     atom   30 type  1   force =     0.00006096    0.00044183   -0.00502355
     atom   31 type  1   force =     0.00003011    0.00046493   -0.00003413
     atom   32 type  1   force =     0.00050577   -0.00088513   -0.00015228
     atom   33 type  1   force =    -0.00004866    0.00007074    0.00426027
     atom   34 type  1   force =    -0.00024897    0.00042862   -0.00520966
     atom   35 type  1   force =     0.00008327    0.00069906   -0.00008480
     atom   36 type  1   force =    -0.00028240    0.00095225    0.00133953
     atom   37 type  2   force =    -0.00040793    0.00064079    0.00154931
     atom   38 type  2   force =     0.00052687   -0.00065827    0.00002537
     atom   39 type  2   force =     0.00051487   -0.00003265    0.00051951
     atom   40 type  2   force =     0.00107738   -0.00087256    0.00066481
     atom   41 type  2   force =    -0.00066484   -0.00109193   -0.00004395
     atom   42 type  2   force =    -0.00058557   -0.00074989    0.00009735
     atom   43 type  2   force =    -0.00049285   -0.00082135    0.00072349
     atom   44 type  2   force =    -0.00062881   -0.00071187    0.00006907
     atom   45 type  2   force =    -0.00013349   -0.00050994    0.00016845

     Total force =     0.020777     Total SCF correction =     0.003263
     SCF correction compared to forces is large: reduce conv_thr to get better values
 !ASE

     Writing output data file calc.save

     General routines

     Parallel routines

   This run was terminated on:  22:46: 6  18Mar2017

   JOB DONE.