     Program PWSCF v.5.1rc2 (svn rev. ) starts on 10Mar2017 at 14:57: 6

     Current dimensions of program PWSCF are:
     Max number of different atomic species (ntypx) = 10
     Max number of k-points (npk) =  40000
     Max angular momentum in pseudopotentials (lmaxx) =  3
     Presently no symmetry can be used with electric field

     IMPORTANT: XC functional enforced from input :
     Exchange-correlation      = RPBE ( 1  4 28  4 0)
     Any further DFT definition will be discarded
     Please, verify this is what you really want

               file Ni.UPF: wavefunction(s)  3D renormalized

     Subspace diagonalization in iterative solution of the eigenvalue problem:
     a serial algorithm will be used

     Generating pointlists ...
     new r_m :   0.4125 (alat units)  0.7795 (a.u.) for type    1
     new r_m :   0.4125 (alat units)  0.7795 (a.u.) for type    2

     bravais-lattice index     =            0
     lattice parameter (alat)  =       1.8897  a.u.
     unit-cell volume          =    7046.4111 (a.u.)^3
     number of atoms/cell      =           37
     number of atomic types    =            2
     number of electrons       =       364.00
     number of Kohn-Sham states=          282
     kinetic-energy cutoff     =      44.0992  Ry
     charge density cutoff     =     440.9919  Ry
     convergence threshold     =      7.3E-07
     mixing beta               =       0.1000
     number of iterations used =           10  plain     mixing
     Exchange-correlation      = RPBE ( 1  4 28  4 0)
     nstep                     =           50

     celldm(1)=   1.889726  celldm(2)=   0.000000  celldm(3)=   0.000000
     celldm(4)=   0.000000  celldm(5)=   0.000000  celldm(6)=   0.000000

     crystal axes: (cart. coord. in units of alat)
               a(1) = (   7.548011   0.000000   0.000000 )
               a(2) = (  -3.774005   6.536769   0.000000 )
               a(3) = (   0.000000   0.000000  21.162925 )

     reciprocal axes: (cart. coord. in units 2 pi/alat)
               b(1) = (  0.132485  0.076490  0.000000 )
               b(2) = (  0.000000  0.152981  0.000000 )
               b(3) = (  0.000000  0.000000  0.047252 )

     PseudoPot. # 1 for Ni read from file:
     /home/alatimer/bin/psp/esp_psp_w_gbrvRu/Ni.UPF
     MD5 check sum: 8b2449ee0060d9c33484ccd47bb60870
     Pseudo is Ultrasoft + core correction, Zval = 10.0
     Generated using "atomic" code by A. Dal Corso  v.5.0.2 svn rev. 9415
     Using radial grid of 1195 points,  6 beta functions with:
                l(1) =   0
                l(2) =   0
                l(3) =   1
                l(4) =   1
                l(5) =   2
                l(6) =   2
     Q(r) pseudized with 0 coefficients

     PseudoPot. # 2 for  C read from file:
     /home/alatimer/bin/psp/esp_psp_w_gbrvRu/C.UPF
     MD5 check sum: ab446d787031eba755f1d5ee46644bb0
     Pseudo is Ultrasoft + core correction, Zval =  4.0
     Generated using "atomic" code by A. Dal Corso  v.5.0.2 svn rev. 9415
     Using radial grid of 1073 points,  4 beta functions with:
                l(1) =   0
                l(2) =   0
                l(3) =   1
                l(4) =   1
     Q(r) pseudized with 0 coefficients

     atomic species   valence    mass     pseudopotential
        Ni1           10.00    58.69340     Ni( 1.00)
        C1             4.00    12.01100      C( 1.00)

     Starting magnetic structure
     atomic species   magnetization
        Ni1          0.300
        C1           0.750

     No symmetry found

   Cartesian axes

     site n.     atom                  positions (alat units)
         1           Ni1 tau(   1) = (   0.0000000   0.0000000   7.5000000  )
         2           Ni1 tau(   2) = (   1.2580018   0.7263077   9.5543084  )
         3           Ni1 tau(   3) = (   0.0000000   1.4526154  11.6086168  )
         4           Ni1 tau(   4) = (   1.2580018   2.1789231  13.6629252  )
         5           Ni1 tau(   5) = (  -1.2580018   2.1789231   7.5000000  )
         6           Ni1 tau(   6) = (   0.0000000   2.9052308   9.5543084  )
         7           Ni1 tau(   7) = (  -1.2580018   3.6315385  11.6086168  )
         8           Ni1 tau(   8) = (  -0.0000000   4.3578462  13.6629252  )
         9           Ni1 tau(   9) = (  -2.5160037   4.3578462   7.5000000  )
        10           Ni1 tau(  10) = (  -1.2580018   5.0841539   9.5543084  )
        11           Ni1 tau(  11) = (  -2.5160037   5.8104616  11.6086168  )
        12           Ni1 tau(  12) = (  -1.2580018   6.5367693  13.6629252  )
        13           Ni1 tau(  13) = (   2.5160037   0.0000000   7.5000000  )
        14           Ni1 tau(  14) = (   3.7740055   0.7263077   9.5543084  )
        15           Ni1 tau(  15) = (   2.5160037   1.4526154  11.6086168  )
        16           Ni1 tau(  16) = (   3.7740055   2.1789231  13.6629252  )
        17           Ni1 tau(  17) = (   1.2580018   2.1789231   7.5000000  )
        18           Ni1 tau(  18) = (   2.5160037   2.9052308   9.5543084  )
        19           Ni1 tau(  19) = (   1.2580018   3.6315385  11.6086168  )
        20           Ni1 tau(  20) = (   2.5160037   4.3578462  13.6629252  )
        21           Ni1 tau(  21) = (  -0.0000000   4.3578462   7.5000000  )
        22           Ni1 tau(  22) = (   1.2580018   5.0841539   9.5543084  )
        23           Ni1 tau(  23) = (  -0.0000000   5.8104616  11.6086168  )
        24           Ni1 tau(  24) = (   1.2580018   6.5367693  13.6629252  )
        25           Ni1 tau(  25) = (   5.0320073   0.0000000   7.5000000  )
        26           Ni1 tau(  26) = (   6.2900092   0.7263077   9.5543084  )
        27           Ni1 tau(  27) = (   5.0320073   1.4526154  11.6086168  )
        28           Ni1 tau(  28) = (   6.2900092   2.1789231  13.6629252  )
        29           Ni1 tau(  29) = (   3.7740055   2.1789231   7.5000000  )
        30           Ni1 tau(  30) = (   5.0320073   2.9052308   9.5543084  )
        31           Ni1 tau(  31) = (   3.7740055   3.6315385  11.6086168  )
        32           Ni1 tau(  32) = (   5.0320073   4.3578462  13.6629252  )
        33           Ni1 tau(  33) = (   2.5160037   4.3578462   7.5000000  )
        34           Ni1 tau(  34) = (   3.7740055   5.0841539   9.5543084  )
        35           Ni1 tau(  35) = (   2.5160037   5.8104616  11.6086168  )
        36           Ni1 tau(  36) = (   3.7740055   6.5367693  13.6629252  )
        37           C1  tau(  37) = (   3.1450046   3.2683846  14.8629252  )

     number of k points=    10  Fermi-Dirac smearing, width (Ry)=  0.0073
                       cart. coord. in units 2pi/alat
        k(    1) = (   0.0000000   0.0000000   0.0000000), wk =   0.1111111
        k(    2) = (   0.0000000   0.0509936   0.0000000), wk =   0.2222222
        k(    3) = (   0.0441617   0.0254968   0.0000000), wk =   0.2222222
        k(    4) = (   0.0441617   0.0764904   0.0000000), wk =   0.2222222
        k(    5) = (   0.0441617  -0.0254968   0.0000000), wk =   0.2222222
        k(    6) = (   0.0000000   0.0000000   0.0000000), wk =   0.1111111
        k(    7) = (   0.0000000   0.0509936   0.0000000), wk =   0.2222222
        k(    8) = (   0.0441617   0.0254968   0.0000000), wk =   0.2222222
        k(    9) = (   0.0441617   0.0764904   0.0000000), wk =   0.2222222
        k(   10) = (   0.0441617  -0.0254968   0.0000000), wk =   0.2222222

     Largest allocated arrays     est. size (Mb)     dimensions
     Largest temporary arrays     est. size (Mb)     dimensions

     Initial potential from superposition of free atoms
     Check: negative starting charge=(component1):   -0.000345
     Check: negative starting charge=(component2):   -0.000192

     starting charge  363.99092, renormalised to  364.00000

     negative rho (up, down):  3.452E-04 1.915E-04

     Adding external electric field

     Computed dipole along edir(3) :
        Dipole               -0.0005 Ry au,         -0.0012 Debye
        Dipole field         -0.0000 Ry au

        Potential amp.        0.0001 Ry
        Total length         38.9923 bohr

[...]

     Starting wfc are  328 randomized atomic wfcs

     Self-consistent Calculation

     iteration #  1     ecut=    44.10 Ry     beta=0.10
     Davidson diagonalization with overlap
     ethr =  1.00E-02,  avg # of iterations =  6.9

[...]

     Magnetic moment per site:
     atom:    1    charge:    3.9463    magn:    1.1287    constr:    0.0000
     atom:    2    charge:    3.9666    magn:    1.1128    constr:    0.0000
     atom:    3    charge:    3.9669    magn:    1.1119    constr:    0.0000
     atom:    4    charge:    3.9507    magn:    1.1243    constr:    0.0000
     atom:    5    charge:    3.9463    magn:    1.1287    constr:    0.0000
     atom:    6    charge:    3.9666    magn:    1.1128    constr:    0.0000
     atom:    7    charge:    3.9672    magn:    1.1121    constr:    0.0000
     atom:    8    charge:    3.9482    magn:    1.1275    constr:    0.0000
     atom:    9    charge:    3.9471    magn:    1.1278    constr:    0.0000
     atom:   10    charge:    3.9666    magn:    1.1129    constr:    0.0000
     atom:   11    charge:    3.9671    magn:    1.1121    constr:    0.0000
     atom:   12    charge:    3.9482    magn:    1.1275    constr:    0.0000
     atom:   13    charge:    3.9472    magn:    1.1278    constr:    0.0000
     atom:   14    charge:    3.9666    magn:    1.1128    constr:    0.0000
     atom:   15    charge:    3.9689    magn:    1.1109    constr:    0.0000
     atom:   16    charge:    3.9630    magn:    1.1076    constr:    0.0000
     atom:   17    charge:    3.9470    magn:    1.1277    constr:    0.0000
     atom:   18    charge:    3.9666    magn:    1.1126    constr:    0.0000
     atom:   19    charge:    3.9689    magn:    1.1109    constr:    0.0000
     atom:   20    charge:    3.9630    magn:    1.1076    constr:    0.0000
     atom:   21    charge:    3.9472    magn:    1.1278    constr:    0.0000
     atom:   22    charge:    3.9666    magn:    1.1129    constr:    0.0000
     atom:   23    charge:    3.9670    magn:    1.1125    constr:    0.0000
     atom:   24    charge:    3.9482    magn:    1.1271    constr:    0.0000
     atom:   25    charge:    3.9475    magn:    1.1277    constr:    0.0000
     atom:   26    charge:    3.9668    magn:    1.1119    constr:    0.0000
     atom:   27    charge:    3.9692    magn:    1.1097    constr:    0.0000
     atom:   28    charge:    3.9480    magn:    1.1279    constr:    0.0000
     atom:   29    charge:    3.9470    magn:    1.1279    constr:    0.0000
     atom:   30    charge:    3.9665    magn:    1.1128    constr:    0.0000
     atom:   31    charge:    3.9698    magn:    1.1101    constr:    0.0000
     atom:   32    charge:    3.9512    magn:    1.1242    constr:    0.0000
     atom:   33    charge:    3.9470    magn:    1.1279    constr:    0.0000
     atom:   34    charge:    3.9665    magn:    1.1128    constr:    0.0000
     atom:   35    charge:    3.9692    magn:    1.1097    constr:    0.0000
     atom:   36    charge:    3.9480    magn:    1.1279    constr:    0.0000
[...]
    -0.3488  -0.3110  -0.3011  -0.2985  -0.2430  -0.2368  -0.2283  -0.2195
    -0.2129  -0.1944  -0.1806  -0.1544  -0.0536  -0.0477  -0.0010  -0.0007
     0.0114   0.0243   0.0341   0.0366   0.0418   0.0605   0.0785   0.0839
     0.0914   0.1345   0.1565   0.1739   0.1763   0.1807   0.1809   0.1864
     0.1873   0.1957   0.1980   0.2065   0.2200   0.2349   0.2488   0.2675
     0.2843   0.2847   0.2919   0.3439   0.3455   0.4397   0.4954   0.5137
     0.5381   0.5577   0.5795   0.6469   0.6662   0.6691   0.6796   0.6827
     0.6951   0.6967   0.7173   0.7397   0.7633   0.7754   0.7764   0.7980
     0.8210   0.9415   0.9435   0.9552   0.9578   0.9582   0.9708   1.0525
     1.0625   1.0641   1.0732   1.0818   1.0850   1.1048   1.1070   1.1653
     1.1760   1.1828   1.1888   1.1943   1.2071   1.2547   1.2656   1.2726
     1.2805   1.2825   1.2861   1.2977   1.3104   1.3275   1.3437   1.3537
     1.3597   1.3629   1.3686   1.3723   1.3768   1.3793   1.3828   1.3858
     1.3926   1.4012   1.4081   1.4169   1.4267   1.4377   1.4399   1.4450
     1.4580   1.4651   1.4782   1.4820   1.4861   1.4898   1.4909   1.4985
     1.4996   1.5013   1.5070   1.5093   1.5835   1.5980   1.6317   1.6405
     1.6437   1.6488   1.6527   1.6599   1.8844   2.2795   2.4628   2.5745
     2.7702   2.7738   2.7816   3.1127   3.7679   4.1409   4.7402   5.1405
     5.1505   5.1536   5.8811   5.9643   6.5450   6.6831   6.8477   6.8531
     6.9859   7.0888   7.0993   7.1044   7.3461   7.5674   7.5708   7.5756
     7.7475   7.7918   7.8694   7.8744   8.1868   8.2014   8.3382   8.8187
     8.9079   8.9477   9.3676   9.6800   9.6996   9.7291   9.7414   9.7434
     9.7446   9.8355   9.9042  10.0721  10.2034  10.2085  10.2449  10.2466
    10.2633  10.4166  10.5497  10.8424  10.8807  10.8856  10.9051  10.9121
    10.9373  10.9585  11.2899  11.3317  11.3560  11.5721  11.6015  11.6069
    11.6380  11.6413  11.7016  11.7214  11.7237  11.7397  11.7405  11.7920
    12.0617  12.3539  12.4878  12.5929  12.5987  12.6893  12.7928  12.8663
    13.0966  13.2417

[...]

 ------ SPIN DOWN ----------

[...]

     the Fermi energy is     2.1721 ev

!    total energy              =   -3634.71699762 Ry
     Harris-Foulkes estimate   =   -3634.71699845 Ry
     estimated scf accuracy    <       0.00000057 Ry

     The total energy is the sum of the following terms:

     one-electron contribution =  -24252.14563533 Ry
     hartree contribution      =   12526.32744762 Ry
     xc contribution           =   -1509.35636118 Ry
     ewald contribution        =    9600.62072098 Ry
     electric field correction =       0.00003877 Ry
     smearing contrib. (-TS)   =      -0.16320848 Ry

[...]

     convergence has been achieved in  50 iterations

     Forces acting on atoms (Ry/au):

     negative rho (up, down):  2.686E-04 2.092E-04
     atom    1 type  1   force =     0.00008374   -0.00041223    0.00525604
     atom    2 type  1   force =    -0.00081506   -0.00039994   -0.00406640
     atom    3 type  1   force =     0.00015087    0.00008700    0.00558036
     atom    4 type  1   force =     0.00253443    0.00146456    0.01022264
     atom    5 type  1   force =    -0.00031425    0.00027813    0.00525603
     atom    6 type  1   force =    -0.00075291   -0.00050538   -0.00406562
     atom    7 type  1   force =    -0.00165513   -0.00060147    0.00530596
     atom    8 type  1   force =    -0.00708240    0.00324427   -0.00778477
     atom    9 type  1   force =    -0.00004817   -0.00002635    0.00476178
     atom   10 type  1   force =    -0.00021876   -0.00012603   -0.00415644
     atom   11 type  1   force =    -0.00134953   -0.00113269    0.00530535
     atom   12 type  1   force =    -0.00073236   -0.00775745   -0.00778459
     atom   13 type  1   force =    -0.00002887   -0.00009114    0.00486061
     atom   14 type  1   force =     0.00028792    0.00017610   -0.00327402
     atom   15 type  1   force =    -0.00023106   -0.00017702   -0.00067038
     atom   16 type  1   force =     0.00870035   -0.02365311    0.01327604
     atom   17 type  1   force =     0.00040709    0.00023471    0.00504918
     atom   18 type  1   force =     0.00048454    0.00028073   -0.00247472
     atom   19 type  1   force =    -0.00026889   -0.00011026   -0.00066960
     atom   20 type  1   force =    -0.01613499    0.01936209    0.01327581
     atom   21 type  1   force =    -0.00009237    0.00002137    0.00486038
     atom   22 type  1   force =     0.00029754    0.00016112   -0.00327366
     atom   23 type  1   force =     0.00088996    0.00051245    0.00497572
     atom   24 type  1   force =     0.00074449    0.00042859   -0.00595224
     atom   25 type  1   force =    -0.00021640   -0.00012616    0.00502420
     atom   26 type  1   force =     0.00129105    0.00074409   -0.00654516
     atom   27 type  1   force =     0.00291703   -0.00072634   -0.00109848
     atom   28 type  1   force =     0.00618241   -0.00309051   -0.00896660
     atom   29 type  1   force =    -0.00012348    0.00018835    0.00485346
     atom   30 type  1   force =     0.00037143   -0.00028865   -0.00294786
     atom   31 type  1   force =     0.00219093    0.00126605   -0.01671040
     atom   32 type  1   force =     0.00140395    0.00081056    0.00961995
     atom   33 type  1   force =     0.00010164   -0.00020000    0.00485398
     atom   34 type  1   force =    -0.00006549    0.00046649   -0.00294843
     atom   35 type  1   force =     0.00082980    0.00288813   -0.00109872
     atom   36 type  1   force =     0.00041416    0.00689863   -0.00896599
     atom   37 type  2   force =    -0.00015322   -0.00008870   -0.01888340

     Total force =     0.059299     Total SCF correction =     0.001964
 !ASE

     Writing output data file calc.save
     Check: negative starting charge=(component1):   -0.000535
     NEW-OLD atomic charge density approx. for the potential
     Check: negative starting charge=(component1):   -0.000541

[...]

     Total force =     0.029607     Total SCF correction =     0.003213
     SCF correction compared to forces is large: reduce conv_thr to get better values
 !ASE

[...]

     Total force =     0.032649     Total SCF correction =     0.002644
 !ASE

[...]

     Writing output data file calc.save
     Check: negative starting charge=(component1):   -0.000546
     NEW-OLD atomic charge density approx. for the potential
     Check: negative starting charge=(component1):   -0.000546

[...]

     Self-consistent Calculation

[...]

     total energy              =   -3634.76734329 Ry
     Harris-Foulkes estimate   =   -3634.76734323 Ry
     estimated scf accuracy    <       0.00000132 Ry

[...]

     iteration # 13     ecut=    44.10 Ry     beta=0.10
     Davidson diagonalization with overlap
     ethr =  3.62E-10,  avg # of iterations =  1.0

     negative rho (up, down):  2.706E-04 2.134E-04

[...]

     Adding external electric field

     Computed dipole along edir(3) :
        Dipole               -0.1183 Ry au,         -0.3007 Debye
        Dipole field         -0.0002 Ry au

        Potential amp.        0.0165 Ry
        Total length         38.9923 bohr

     Magnetic moment per site:
     atom:    1    charge:    3.9712    magn:    0.3814    constr:    0.0000
     atom:    2    charge:    3.9687    magn:    0.3830    constr:    0.0000
     atom:    3    charge:    3.9609    magn:    0.3905    constr:    0.0000
     atom:    4    charge:    3.8787    magn:    0.3390    constr:    0.0000
     atom:    5    charge:    3.9712    magn:    0.3815    constr:    0.0000
     atom:    6    charge:    3.9687    magn:    0.3830    constr:    0.0000
     atom:    7    charge:    3.9598    magn:    0.3543    constr:    0.0000
     atom:    8    charge:    3.9345    magn:    0.3168    constr:    0.0000
     atom:    9    charge:    3.9712    magn:    0.3728    constr:    0.0000
     atom:   10    charge:    3.9686    magn:    0.3837    constr:    0.0000
     atom:   11    charge:    3.9600    magn:    0.3543    constr:    0.0000
     atom:   12    charge:    3.9342    magn:    0.3168    constr:    0.0000
     atom:   13    charge:    3.9714    magn:    0.3709    constr:    0.0000
     atom:   14    charge:    3.9686    magn:    0.3834    constr:    0.0000
     atom:   15    charge:    3.9659    magn:    0.3534    constr:    0.0000
     atom:   16    charge:    3.8288    magn:    0.0858    constr:    0.0000
     atom:   17    charge:    3.9712    magn:    0.3811    constr:    0.0000
     atom:   18    charge:    3.9687    magn:    0.3870    constr:    0.0000
     atom:   19    charge:    3.9659    magn:    0.3532    constr:    0.0000
     atom:   20    charge:    3.8304    magn:    0.0844    constr:    0.0000
     atom:   21    charge:    3.9714    magn:    0.3709    constr:    0.0000
     atom:   22    charge:    3.9686    magn:    0.3834    constr:    0.0000
     atom:   23    charge:    3.9636    magn:    0.3712    constr:    0.0000
     atom:   24    charge:    3.9317    magn:    0.3161    constr:    0.0000
     atom:   25    charge:    3.9714    magn:    0.3706    constr:    0.0000
     atom:   26    charge:    3.9687    magn:    0.3827    constr:    0.0000
     atom:   27    charge:    3.9615    magn:    0.3547    constr:    0.0000
     atom:   28    charge:    3.9313    magn:    0.3444    constr:    0.0000
     atom:   29    charge:    3.9712    magn:    0.3729    constr:    0.0000
     atom:   30    charge:    3.9686    magn:    0.3870    constr:    0.0000
     atom:   31    charge:    3.9539    magn:    0.3724    constr:    0.0000
     atom:   32    charge:    3.9259    magn:    0.0883    constr:    0.0000
     atom:   33    charge:    3.9713    magn:    0.3728    constr:    0.0000
     atom:   34    charge:    3.9686    magn:    0.3870    constr:    0.0000
     atom:   35    charge:    3.9618    magn:    0.3546    constr:    0.0000
     atom:   36    charge:    3.9318    magn:    0.3444    constr:    0.0000
     atom:   37    charge:    0.2886    magn:   -0.0022    constr:    0.0000

     End of self-consistent calculation

 ------ SPIN UP ------------

[...]

 ------ SPIN DOWN ----------

[...]

          k = 0.0442-0.0255 0.0000 ( 34862 PWs)   bands (ev):

    -8.9890  -5.8339  -4.7282  -4.4660  -3.7167  -3.6785  -3.5029  -2.8530
    -2.8483  -2.5854  -2.3437  -2.3060  -2.1913  -2.0529  -1.9900  -1.8869
    -1.8657  -1.8052  -1.6958  -1.6812  -1.5915  -1.3998  -1.3860  -1.3072
    -1.2920  -1.2571  -1.2359  -1.2121  -1.1808  -1.1255  -1.1070  -1.0837
    -0.9569  -0.9231  -0.8944  -0.8828  -0.8393  -0.7708  -0.7472  -0.7457
    -0.7269  -0.7063  -0.6476  -0.6064  -0.5791  -0.5447  -0.4694  -0.4431
    -0.4210  -0.3710  -0.3392  -0.3343  -0.2688  -0.2639  -0.2434  -0.2380
    -0.1459  -0.1230  -0.0867  -0.0743  -0.0405  -0.0097   0.0118   0.0880
     0.0955   0.1080   0.1560   0.1629   0.2076   0.2233   0.2299   0.2483
     0.2850   0.3072   0.3388   0.3466   0.3840   0.3985   0.4277   0.4321
     0.4464   0.4814   0.5101   0.5185   0.5294   0.5555   0.5750   0.5942
     0.6053   0.6182   0.6206   0.6402   0.6546   0.6729   0.6959   0.7030
     0.7308   0.7353   0.7489   0.7617   0.7805   0.8100   0.8176   0.8363
     0.8565   0.8612   0.8860   0.8891   0.8992   0.9076   0.9257   0.9331
     0.9793   0.9843   1.0096   1.0465   1.0755   1.0841   1.1235   1.1478
     1.1579   1.2180   1.2432   1.2467   1.2914   1.2928   1.3164   1.3243
     1.3516   1.3560   1.3706   1.3786   1.4062   1.4182   1.5134   1.5229
     1.5714   1.5786   1.5973   1.6157   1.6231   1.6621   1.6919   1.7093
     1.7252   1.7306   1.7486   1.7658   1.7831   1.8066   1.8160   1.8465
     1.8566   1.8807   1.8926   1.9232   1.9325   1.9707   1.9729   1.9826
     1.9962   2.0150   2.0205   2.0352   2.0662   2.0887   2.1267   2.1296
     2.1478   2.1575   2.1748   2.1776   2.1911   2.2242   2.2331   2.2692
     2.2705   2.2793   2.2965   2.3037   2.3055   2.3192   2.3385   2.3643
     2.4029   2.4121   2.4332   2.4420   2.4491   2.4573   2.5133   2.5424
     2.7933   2.8133   2.8875   2.9073   3.0593   3.1303   3.1968   3.3170
     3.5331   3.7931   3.9132   4.1170   4.2832   4.4035   4.4162   4.6553
     4.7887   5.0261   5.1482   5.3929   5.6108   5.6767   5.9374   6.1468
     6.3888   6.5878   6.8211   7.0236   7.0652   7.2455   7.3736   7.5155
     7.5631   8.2077   8.3340   8.4612   8.5471   8.9508   8.9956   9.0259
     9.1552   9.1822   9.2472   9.2640   9.3698   9.3785   9.4739   9.5524
     9.5759   9.6302   9.7846  10.0541  10.0914  10.2524  10.4592  10.4949
    10.6541  10.7953  10.8237  10.9473  10.9538  11.1334  11.2218  11.2866
    11.3369  11.4354  11.5869  11.6742  11.7098  11.7887  11.8995  11.9433
    11.9995  12.1710  12.2697  12.3173  12.3807  12.6000  12.6573  12.7569
    12.8374  13.0791  13.1484  13.1627  13.2018  13.2366  13.3071  13.4750
    13.5259  13.5660

     the Fermi energy is     2.1883 ev

!    total energy              =   -3634.76734392 Ry
     Harris-Foulkes estimate   =   -3634.76734320 Ry
     estimated scf accuracy    <       0.00000062 Ry

     The total energy is the sum of the following terms:

     one-electron contribution =  -24335.19900088 Ry
     hartree contribution      =   12567.95745921 Ry
     xc contribution           =   -1509.49926224 Ry
     ewald contribution        =    9642.13553960 Ry
     electric field correction =       0.00002496 Ry
     smearing contrib. (-TS)   =      -0.16210458 Ry

     total magnetization       =    19.96 Bohr mag/cell
     absolute magnetization    =    23.47 Bohr mag/cell

     convergence has been achieved in  13 iterations

     Forces acting on atoms (Ry/au):

     negative rho (up, down):  2.706E-04 2.134E-04
     atom    1 type  1   force =     0.00001708   -0.00060563    0.00537357
     atom    2 type  1   force =    -0.00109955   -0.00049613   -0.00556557
     atom    3 type  1   force =     0.00015097    0.00009983    0.00028488
     atom    4 type  1   force =     0.00079391    0.00054919    0.00039989
     atom    5 type  1   force =    -0.00054746    0.00036587    0.00540301
     atom    6 type  1   force =    -0.00103978   -0.00065541   -0.00558660
     atom    7 type  1   force =     0.00033429   -0.00046629   -0.00010839
     atom    8 type  1   force =     0.00139559   -0.00012148   -0.00037491
     atom    9 type  1   force =     0.00011382    0.00000341    0.00448122
     atom   10 type  1   force =    -0.00082573   -0.00055149   -0.00429608
     atom   11 type  1   force =    -0.00030275    0.00046948   -0.00000469
     atom   12 type  1   force =     0.00034152    0.00097834   -0.00031650
     atom   13 type  1   force =    -0.00018748   -0.00000094    0.00465287
     atom   14 type  1   force =    -0.00074358   -0.00042702   -0.00438026
     atom   15 type  1   force =    -0.00023501    0.00040634    0.00077767
     atom   16 type  1   force =     0.00116950    0.00088481    0.00043573
     atom   17 type  1   force =     0.00045995    0.00030030    0.00536225
     atom   18 type  1   force =    -0.00144895   -0.00083819   -0.00494146
     atom   19 type  1   force =     0.00026735   -0.00024922    0.00093292
     atom   20 type  1   force =    -0.00000929    0.00134034   -0.00049008
     atom   21 type  1   force =    -0.00012412   -0.00020784    0.00468524
     atom   22 type  1   force =    -0.00081333   -0.00045596   -0.00439611
     atom   23 type  1   force =    -0.00004707   -0.00015452   -0.00019898
     atom   24 type  1   force =     0.00113426    0.00001505   -0.00003797
     atom   25 type  1   force =     0.00011385    0.00010384    0.00459824
     atom   26 type  1   force =    -0.00058139   -0.00026455   -0.00561445
     atom   27 type  1   force =     0.00053654    0.00010744    0.00013304
     atom   28 type  1   force =     0.00058646    0.00030544    0.00012169
     atom   29 type  1   force =     0.00006526   -0.00005428    0.00438731
     atom   30 type  1   force =     0.00019688   -0.00082315   -0.00497195
     atom   31 type  1   force =    -0.00033215   -0.00008864    0.00038293
     atom   32 type  1   force =    -0.00045768   -0.00029139    0.00024912
     atom   33 type  1   force =    -0.00004366    0.00003279    0.00439428
     atom   34 type  1   force =    -0.00061696    0.00051311   -0.00495256
     atom   35 type  1   force =     0.00028640    0.00021441    0.00051821
     atom   36 type  1   force =     0.00045646    0.00019271    0.00008859
     atom   37 type  2   force =     0.00103587   -0.00013057   -0.00142609

     Total force =     0.021536     Total SCF correction =     0.002611
     SCF correction compared to forces is large: reduce conv_thr to get better values
 !ASE

     Writing output data file calc.save

     General routines

     Parallel routines

   This run was terminated on:   7:18:27  11Mar2017

   JOB DONE.