     Program PWSCF v.5.1rc2 (svn rev. ) starts on 10Mar2017 at 15:11:23

     Current dimensions of program PWSCF are:
     Max number of different atomic species (ntypx) = 10
     Max number of k-points (npk) =  40000
     Max angular momentum in pseudopotentials (lmaxx) =  3
     Presently no symmetry can be used with electric field

     IMPORTANT: XC functional enforced from input :
     Exchange-correlation      = RPBE ( 1  4 28  4 0)
     Any further DFT definition will be discarded
     Please, verify this is what you really want

               file Ni.UPF: wavefunction(s)  3D renormalized

     Subspace diagonalization in iterative solution of the eigenvalue problem:
     a serial algorithm will be used

     Generating pointlists ...
     new r_m :   0.4125 (alat units)  0.7795 (a.u.) for type    1
     new r_m :   0.4125 (alat units)  0.7795 (a.u.) for type    2

     bravais-lattice index     =            0
     lattice parameter (alat)  =       1.8897  a.u.
     unit-cell volume          =    7046.4111 (a.u.)^3
     number of atoms/cell      =           37
     number of atomic types    =            2
     number of electrons       =       366.00
     number of Kohn-Sham states=          283
     kinetic-energy cutoff     =      44.0992  Ry
     charge density cutoff     =     440.9919  Ry
     convergence threshold     =      7.3E-07
     mixing beta               =       0.1000
     number of iterations used =           10  plain     mixing
     Exchange-correlation      = RPBE ( 1  4 28  4 0)
     nstep                     =           50

     celldm(1)=   1.889726  celldm(2)=   0.000000  celldm(3)=   0.000000
     celldm(4)=   0.000000  celldm(5)=   0.000000  celldm(6)=   0.000000

     crystal axes: (cart. coord. in units of alat)
               a(1) = (   7.548011   0.000000   0.000000 )
               a(2) = (  -3.774005   6.536769   0.000000 )
               a(3) = (   0.000000   0.000000  21.162925 )

     reciprocal axes: (cart. coord. in units 2 pi/alat)
               b(1) = (  0.132485  0.076490  0.000000 )
               b(2) = (  0.000000  0.152981  0.000000 )
               b(3) = (  0.000000  0.000000  0.047252 )

     PseudoPot. # 1 for Ni read from file:
     /home/alatimer/bin/psp/esp_psp_w_gbrvRu/Ni.UPF
     MD5 check sum: 8b2449ee0060d9c33484ccd47bb60870
     Pseudo is Ultrasoft + core correction, Zval = 10.0
     Generated using "atomic" code by A. Dal Corso  v.5.0.2 svn rev. 9415
     Using radial grid of 1195 points,  6 beta functions with:
                l(1) =   0
                l(2) =   0
                l(3) =   1
                l(4) =   1
                l(5) =   2
                l(6) =   2
     Q(r) pseudized with 0 coefficients

     PseudoPot. # 2 for  O read from file:
     /home/alatimer/bin/psp/esp_psp_w_gbrvRu/O.UPF
     MD5 check sum: e057bbcf3229fb5d8c36c0c92f9568b4
     Pseudo is Ultrasoft + core correction, Zval =  6.0
     Generated using "atomic" code by A. Dal Corso  v.5.0.2 svn rev. 9415
     Using radial grid of 1095 points,  4 beta functions with:
                l(1) =   0
                l(2) =   0
                l(3) =   1
                l(4) =   1
     Q(r) pseudized with 0 coefficients

     atomic species   valence    mass     pseudopotential
        Ni1           10.00    58.69340     Ni( 1.00)
        O1             6.00    15.99940      O( 1.00)

     Starting magnetic structure
     atomic species   magnetization
        Ni1          0.300
        O1           0.500

     No symmetry found

   Cartesian axes

     site n.     atom                  positions (alat units)
         1           Ni1 tau(   1) = (   0.0000000   0.0000000   7.5000000  )
         2           Ni1 tau(   2) = (   1.2580018   0.7263077   9.5543084  )
         3           Ni1 tau(   3) = (   0.0000000   1.4526154  11.6086168  )
         4           Ni1 tau(   4) = (   1.2580018   2.1789231  13.6629252  )
         5           Ni1 tau(   5) = (  -1.2580018   2.1789231   7.5000000  )
         6           Ni1 tau(   6) = (   0.0000000   2.9052308   9.5543084  )
         7           Ni1 tau(   7) = (  -1.2580018   3.6315385  11.6086168  )
         8           Ni1 tau(   8) = (  -0.0000000   4.3578462  13.6629252  )
         9           Ni1 tau(   9) = (  -2.5160037   4.3578462   7.5000000  )
        10           Ni1 tau(  10) = (  -1.2580018   5.0841539   9.5543084  )
        11           Ni1 tau(  11) = (  -2.5160037   5.8104616  11.6086168  )
        12           Ni1 tau(  12) = (  -1.2580018   6.5367693  13.6629252  )
        13           Ni1 tau(  13) = (   2.5160037   0.0000000   7.5000000  )
        14           Ni1 tau(  14) = (   3.7740055   0.7263077   9.5543084  )
        15           Ni1 tau(  15) = (   2.5160037   1.4526154  11.6086168  )
        16           Ni1 tau(  16) = (   3.7740055   2.1789231  13.6629252  )
        17           Ni1 tau(  17) = (   1.2580018   2.1789231   7.5000000  )
        18           Ni1 tau(  18) = (   2.5160037   2.9052308   9.5543084  )
        19           Ni1 tau(  19) = (   1.2580018   3.6315385  11.6086168  )
        20           Ni1 tau(  20) = (   2.5160037   4.3578462  13.6629252  )
        21           Ni1 tau(  21) = (  -0.0000000   4.3578462   7.5000000  )
        22           Ni1 tau(  22) = (   1.2580018   5.0841539   9.5543084  )
        23           Ni1 tau(  23) = (  -0.0000000   5.8104616  11.6086168  )
        24           Ni1 tau(  24) = (   1.2580018   6.5367693  13.6629252  )
        25           Ni1 tau(  25) = (   5.0320073   0.0000000   7.5000000  )
        26           Ni1 tau(  26) = (   6.2900092   0.7263077   9.5543084  )
        27           Ni1 tau(  27) = (   5.0320073   1.4526154  11.6086168  )
        28           Ni1 tau(  28) = (   6.2900092   2.1789231  13.6629252  )
        29           Ni1 tau(  29) = (   3.7740055   2.1789231   7.5000000  )
        30           Ni1 tau(  30) = (   5.0320073   2.9052308   9.5543084  )
        31           Ni1 tau(  31) = (   3.7740055   3.6315385  11.6086168  )
        32           Ni1 tau(  32) = (   5.0320073   4.3578462  13.6629252  )
        33           Ni1 tau(  33) = (   2.5160037   4.3578462   7.5000000  )
        34           Ni1 tau(  34) = (   3.7740055   5.0841539   9.5543084  )
        35           Ni1 tau(  35) = (   2.5160037   5.8104616  11.6086168  )
        36           Ni1 tau(  36) = (   3.7740055   6.5367693  13.6629252  )
        37           O1  tau(  37) = (   1.2580018   2.1789231  15.3629252  )

     number of k points=    10  Fermi-Dirac smearing, width (Ry)=  0.0073
                       cart. coord. in units 2pi/alat
        k(    1) = (   0.0000000   0.0000000   0.0000000), wk =   0.1111111
        k(    2) = (   0.0000000   0.0509936   0.0000000), wk =   0.2222222
        k(    3) = (   0.0441617   0.0254968   0.0000000), wk =   0.2222222
        k(    4) = (   0.0441617   0.0764904   0.0000000), wk =   0.2222222
        k(    5) = (   0.0441617  -0.0254968   0.0000000), wk =   0.2222222
        k(    6) = (   0.0000000   0.0000000   0.0000000), wk =   0.1111111
        k(    7) = (   0.0000000   0.0509936   0.0000000), wk =   0.2222222
        k(    8) = (   0.0441617   0.0254968   0.0000000), wk =   0.2222222
        k(    9) = (   0.0441617   0.0764904   0.0000000), wk =   0.2222222
        k(   10) = (   0.0441617  -0.0254968   0.0000000), wk =   0.2222222

     Largest allocated arrays     est. size (Mb)     dimensions
     Largest temporary arrays     est. size (Mb)     dimensions

     Check: negative/imaginary core charge=   -0.000003    0.000000

     Initial potential from superposition of free atoms
     Check: negative starting charge=(component1):   -0.000371
     Check: negative starting charge=(component2):   -0.000195

     starting charge  365.99096, renormalised to  366.00000

     negative rho (up, down):  3.709E-04 1.954E-04

     Adding external electric field

     Computed dipole along edir(3) :
        Dipole               -0.0013 Ry au,         -0.0034 Debye
        Dipole field         -0.0000 Ry au

        Potential amp.        0.0002 Ry
        Total length         38.9923 bohr

[...]

     Starting wfc are  328 randomized atomic wfcs

     Self-consistent Calculation

     iteration #  1     ecut=    44.10 Ry     beta=0.10
     Davidson diagonalization with overlap
     ethr =  1.00E-02,  avg # of iterations =  7.1

[...]

     Magnetic moment per site:
     atom:    1    charge:    3.9496    magn:    1.1258    constr:    0.0000
     atom:    2    charge:    3.9681    magn:    1.1118    constr:    0.0000
     atom:    3    charge:    3.9701    magn:    1.1096    constr:    0.0000
     atom:    4    charge:    3.9365    magn:    1.1382    constr:    0.0000
     atom:    5    charge:    3.9495    magn:    1.1258    constr:    0.0000
     atom:    6    charge:    3.9681    magn:    1.1118    constr:    0.0000
     atom:    7    charge:    3.9684    magn:    1.1114    constr:    0.0000
     atom:    8    charge:    3.9498    magn:    1.1263    constr:    0.0000
     atom:    9    charge:    3.9494    magn:    1.1258    constr:    0.0000
     atom:   10    charge:    3.9680    magn:    1.1116    constr:    0.0000
     atom:   11    charge:    3.9683    magn:    1.1114    constr:    0.0000
     atom:   12    charge:    3.9498    magn:    1.1263    constr:    0.0000
     atom:   13    charge:    3.9495    magn:    1.1258    constr:    0.0000
     atom:   14    charge:    3.9685    magn:    1.1110    constr:    0.0000
     atom:   15    charge:    3.9701    magn:    1.1096    constr:    0.0000
     atom:   16    charge:    3.9498    magn:    1.1263    constr:    0.0000
     atom:   17    charge:    3.9493    magn:    1.1263    constr:    0.0000
     atom:   18    charge:    3.9681    magn:    1.1118    constr:    0.0000
     atom:   19    charge:    3.9701    magn:    1.1096    constr:    0.0000
     atom:   20    charge:    3.9498    magn:    1.1263    constr:    0.0000
     atom:   21    charge:    3.9495    magn:    1.1258    constr:    0.0000
     atom:   22    charge:    3.9685    magn:    1.1110    constr:    0.0000
     atom:   23    charge:    3.9681    magn:    1.1118    constr:    0.0000
     atom:   24    charge:    3.9491    magn:    1.1264    constr:    0.0000
     atom:   25    charge:    3.9481    magn:    1.1267    constr:    0.0000
     atom:   26    charge:    3.9685    magn:    1.1110    constr:    0.0000
     atom:   27    charge:    3.9681    magn:    1.1118    constr:    0.0000
     atom:   28    charge:    3.9498    magn:    1.1263    constr:    0.0000
     atom:   29    charge:    3.9495    magn:    1.1258    constr:    0.0000
     atom:   30    charge:    3.9680    magn:    1.1115    constr:    0.0000
     atom:   31    charge:    3.9683    magn:    1.1114    constr:    0.0000
     atom:   32    charge:    3.9492    magn:    1.1262    constr:    0.0000
     atom:   33    charge:    3.9495    magn:    1.1258    constr:    0.0000
     atom:   34    charge:    3.9680    magn:    1.1116    constr:    0.0000
     atom:   35    charge:    3.9681    magn:    1.1118    constr:    0.0000
[...]
    -0.1416  -0.1416  -0.1164  -0.1164  -0.1143  -0.0906  -0.0735  -0.0735
    -0.0468  -0.0468   0.0140   0.0140   0.0219   0.0281   0.0281   0.0292
     0.0327   0.0327   0.0342   0.0473   0.0473   0.0743   0.0743   0.0937
     0.0937   0.1367   0.1383   0.1383   0.2459   0.2459   0.2537   0.3677
     0.3946   0.3946   0.4099   0.4591   0.4591   0.5242   0.5243   0.5243
     0.5269   0.5278   0.5278   0.5905   0.6147   0.6147   0.6237   0.6248
     0.6915   0.7510   0.7510   0.8033   0.8033   0.8108   0.8108   0.8872
     0.8872   0.9251   0.9287   0.9287   0.9295   0.9477   0.9477   0.9818
     0.9818   1.0199   1.0199   1.0287   1.0733   1.0733   1.0861   1.1081
     1.1081   1.1238   1.1244   1.1244   1.1285   1.1613   1.1613   1.1812
     1.1812   1.1905   1.2012   1.2104   1.2153   1.2230   1.2256   1.2256
     1.2418   1.2418   1.2650   1.2705   1.2705   1.2736   1.2746   1.2746
     1.2893   1.3158   1.3158   1.3242   1.3242   1.3293   1.3304   1.3356
     1.3372   1.3372   1.3445   1.3445   1.4021   1.4329   1.4329   1.4606
     1.4606   1.4875   1.4875   1.4911   1.4911   1.4926   1.4947   1.8254
     2.4324   2.6335   2.6406   2.6406   2.8191   2.8191   3.4911   5.0152
     5.0223   5.0223   5.1544   5.1544   5.8267   6.5206   6.6942   6.7114
     6.9531   6.9531   6.9616   6.9616   7.0250   7.4416   7.4518   7.4518
     7.5375   7.5375   7.7363   7.7363   7.8427   7.8427   8.1376   8.1534
     8.7076   8.7212   8.8324   9.5854   9.5854   9.5926   9.5926   9.6204
     9.6294   9.6294   9.7757   9.7757   9.8867  10.1845  10.1880  10.1880
    10.1956  10.1956  10.3917  10.7762  10.7762  10.7842  10.7842  10.7935
    10.8042  10.8333  10.9643  11.1204  11.2335  11.5385  11.5560  11.5560
    11.5754  11.5754  11.5850  11.5876  11.6589  11.6717  11.6717  11.6815
    11.6815  11.9377  12.4610  12.4883  12.4883  12.5729  12.5729  12.5921
    12.9787  13.1433  13.1433

[...]

 ------ SPIN DOWN ----------

[...]

     the Fermi energy is     2.0415 ev

!    total energy              =   -3656.49376905 Ry
     Harris-Foulkes estimate   =   -3656.49377037 Ry
     estimated scf accuracy    <       0.00000068 Ry

     The total energy is the sum of the following terms:

     one-electron contribution =  -24192.52832689 Ry
     hartree contribution      =   12496.84653294 Ry
     xc contribution           =   -1514.13845975 Ry
     ewald contribution        =    9553.49095508 Ry
     electric field correction =       0.00023854 Ry
     smearing contrib. (-TS)   =      -0.16470897 Ry

[...]

     convergence has been achieved in  51 iterations

     Forces acting on atoms (Ry/au):

     negative rho (up, down):  2.904E-04 2.184E-04
     atom    1 type  1   force =     0.00011587    0.00006930    0.00496506
     atom    2 type  1   force =    -0.00000009   -0.00051721   -0.00306680
     atom    3 type  1   force =     0.00311820    0.00180095   -0.00011468
     atom    4 type  1   force =     0.00000087    0.00000152    0.02304875
     atom    5 type  1   force =     0.00011925    0.00006636    0.00496584
     atom    6 type  1   force =    -0.00044735    0.00026031   -0.00306680
     atom    7 type  1   force =     0.00015375   -0.00008601    0.00373086
     atom    8 type  1   force =    -0.00470143    0.01003183   -0.00510693
     atom    9 type  1   force =     0.00000145    0.00000095    0.00497555
     atom   10 type  1   force =    -0.00012477   -0.00007350   -0.00420595
     atom   11 type  1   force =     0.00000142    0.00017463    0.00373139
     atom   12 type  1   force =     0.00633726   -0.00908833   -0.00510648
     atom   13 type  1   force =    -0.00011582    0.00006759    0.00496605
     atom   14 type  1   force =     0.00179625   -0.00103937   -0.00414905
     atom   15 type  1   force =    -0.00311780    0.00179955   -0.00011289
     atom   16 type  1   force =     0.01103657   -0.00094303   -0.00510617
     atom   17 type  1   force =    -0.00000181    0.00000096    0.00448990
     atom   18 type  1   force =     0.00044597    0.00025946   -0.00306551
     atom   19 type  1   force =    -0.00000070   -0.00359840   -0.00011382
     atom   20 type  1   force =     0.00470062    0.01003019   -0.00510689
     atom   21 type  1   force =     0.00000240   -0.00013483    0.00496667
     atom   22 type  1   force =    -0.00000156    0.00207359   -0.00414909
     atom   23 type  1   force =    -0.00080832   -0.00046834    0.00590790
     atom   24 type  1   force =    -0.00000201   -0.00000248   -0.00646673
     atom   25 type  1   force =    -0.00000016   -0.00000199    0.00432675
     atom   26 type  1   force =    -0.00179627   -0.00103747   -0.00414930
     atom   27 type  1   force =    -0.00000068    0.00093296    0.00590706
     atom   28 type  1   force =    -0.01103737   -0.00094177   -0.00510592
     atom   29 type  1   force =    -0.00011757    0.00006529    0.00496526
     atom   30 type  1   force =     0.00000145    0.00014704   -0.00420559
     atom   31 type  1   force =    -0.00015259   -0.00008703    0.00373213
     atom   32 type  1   force =     0.00000090    0.00000061   -0.00685915
     atom   33 type  1   force =    -0.00000400   -0.00013365    0.00496557
     atom   34 type  1   force =     0.00012622   -0.00007259   -0.00420561
     atom   35 type  1   force =     0.00080706   -0.00046854    0.00590724
     atom   36 type  1   force =    -0.00633539   -0.00908848   -0.00510647
     atom   37 type  2   force =     0.00000017   -0.00000004   -0.01698217

     Total force =     0.048454     Total SCF correction =     0.002589
 !ASE

     Writing output data file calc.save
     Check: negative starting charge=(component1):   -0.000565
     NEW-OLD atomic charge density approx. for the potential

     Check: negative/imaginary core charge=   -0.000003    0.000000
     Check: negative starting charge=(component1):   -0.000570

[...]

     Total force =     0.044642     Total SCF correction =     0.001934
 !ASE

[...]

     Total force =     0.020002     Total SCF correction =     0.003385
     SCF correction compared to forces is large: reduce conv_thr to get better values
 !ASE

[...]

     Writing output data file calc.save
     Check: negative starting charge=(component1):   -0.000570
     NEW-OLD atomic charge density approx. for the potential

     Check: negative/imaginary core charge=   -0.000003    0.000000
     Check: negative starting charge=(component1):   -0.000570

[...]

     Self-consistent Calculation

[...]

     total energy              =   -3656.49776703 Ry
     Harris-Foulkes estimate   =   -3656.49776679 Ry
     estimated scf accuracy    <       0.00000094 Ry

[...]

     iteration # 13     ecut=    44.10 Ry     beta=0.10
     Davidson diagonalization with overlap
     ethr =  2.58E-10,  avg # of iterations =  1.5

     negative rho (up, down):  2.931E-04 2.219E-04

[...]

     Adding external electric field

     Computed dipole along edir(3) :
        Dipole               -0.3739 Ry au,         -0.9505 Debye
        Dipole field         -0.0007 Ry au

        Potential amp.        0.0520 Ry
        Total length         38.9923 bohr

     Magnetic moment per site:
     atom:    1    charge:    3.9714    magn:    0.3731    constr:    0.0000
     atom:    2    charge:    3.9688    magn:    0.3906    constr:    0.0000
     atom:    3    charge:    3.9653    magn:    0.3789    constr:    0.0000
     atom:    4    charge:    3.9037    magn:    0.4112    constr:    0.0000
     atom:    5    charge:    3.9714    magn:    0.3731    constr:    0.0000
     atom:    6    charge:    3.9688    magn:    0.3906    constr:    0.0000
     atom:    7    charge:    3.9683    magn:    0.3747    constr:    0.0000
     atom:    8    charge:    3.9491    magn:    0.3843    constr:    0.0000
     atom:    9    charge:    3.9713    magn:    0.3676    constr:    0.0000
     atom:   10    charge:    3.9686    magn:    0.3877    constr:    0.0000
     atom:   11    charge:    3.9683    magn:    0.3747    constr:    0.0000
     atom:   12    charge:    3.9491    magn:    0.3843    constr:    0.0000
     atom:   13    charge:    3.9713    magn:    0.3731    constr:    0.0000
     atom:   14    charge:    3.9689    magn:    0.3834    constr:    0.0000
     atom:   15    charge:    3.9653    magn:    0.3789    constr:    0.0000
     atom:   16    charge:    3.9491    magn:    0.3843    constr:    0.0000
     atom:   17    charge:    3.9713    magn:    0.3718    constr:    0.0000
     atom:   18    charge:    3.9688    magn:    0.3906    constr:    0.0000
     atom:   19    charge:    3.9653    magn:    0.3789    constr:    0.0000
     atom:   20    charge:    3.9491    magn:    0.3843    constr:    0.0000
     atom:   21    charge:    3.9713    magn:    0.3731    constr:    0.0000
     atom:   22    charge:    3.9689    magn:    0.3834    constr:    0.0000
     atom:   23    charge:    3.9675    magn:    0.3817    constr:    0.0000
     atom:   24    charge:    3.9550    magn:    0.3917    constr:    0.0000
     atom:   25    charge:    3.9714    magn:    0.3880    constr:    0.0000
     atom:   26    charge:    3.9689    magn:    0.3834    constr:    0.0000
     atom:   27    charge:    3.9675    magn:    0.3817    constr:    0.0000
     atom:   28    charge:    3.9491    magn:    0.3843    constr:    0.0000
     atom:   29    charge:    3.9714    magn:    0.3731    constr:    0.0000
     atom:   30    charge:    3.9687    magn:    0.3876    constr:    0.0000
     atom:   31    charge:    3.9684    magn:    0.3747    constr:    0.0000
     atom:   32    charge:    3.9535    magn:    0.3833    constr:    0.0000
     atom:   33    charge:    3.9714    magn:    0.3731    constr:    0.0000
     atom:   34    charge:    3.9687    magn:    0.3876    constr:    0.0000
     atom:   35    charge:    3.9676    magn:    0.3816    constr:    0.0000
     atom:   36    charge:    3.9491    magn:    0.3843    constr:    0.0000
     atom:   37    charge:    2.0143    magn:    0.2525    constr:    0.0000

     End of self-consistent calculation

 ------ SPIN UP ------------

[...]

 ------ SPIN DOWN ----------

[...]

          k = 0.0442-0.0255 0.0000 ( 34862 PWs)   bands (ev):

   -14.9394  -6.0519  -4.8973  -4.7436  -3.8598  -3.8537  -3.6904  -3.0424
    -2.8280  -2.8146  -2.3953  -2.3702  -2.1946  -2.1683  -2.1069  -2.0286
    -1.9654  -1.9241  -1.8519  -1.6695  -1.6231  -1.5245  -1.5029  -1.4775
    -1.4391  -1.4236  -1.4017  -1.3883  -1.3659  -1.2933  -1.2773  -1.2452
    -1.1366  -1.0681  -1.0638  -1.0517  -1.0324  -0.9200  -0.9190  -0.8943
    -0.8711  -0.8636  -0.8605  -0.7478  -0.7350  -0.7029  -0.6026  -0.5866
    -0.5592  -0.5583  -0.4753  -0.4575  -0.4441  -0.4164  -0.4086  -0.3732
    -0.3697  -0.2596  -0.2564  -0.2097  -0.1936  -0.1606  -0.1135  -0.0671
     0.0020   0.0110   0.0333   0.0498   0.0521   0.0846   0.1022   0.1281
     0.1747   0.1895   0.2091   0.2161   0.2370   0.2497   0.2754   0.2919
     0.3117   0.3139   0.3664   0.3732   0.4126   0.4511   0.4564   0.4793
     0.4870   0.4891   0.5074   0.5255   0.5270   0.5529   0.5595   0.5659
     0.5683   0.5993   0.6158   0.6308   0.6525   0.6650   0.6911   0.6936
     0.7029   0.7258   0.7436   0.7544   0.7696   0.7713   0.8051   0.8270
     0.8492   0.8671   0.8677   0.9022   0.9089   0.9740   0.9886   0.9931
     1.0680   1.0694   1.1185   1.1317   1.1421   1.1638   1.1644   1.1937
     1.2062   1.2140   1.2324   1.2402   1.2984   1.3012   1.3511   1.3909
     1.4071   1.4321   1.4459   1.4776   1.4792   1.5209   1.5586   1.5673
     1.6069   1.6110   1.6214   1.6220   1.6303   1.6419   1.6786   1.7075
     1.7270   1.7391   1.7611   1.7670   1.7932   1.8170   1.8304   1.8364
     1.8572   1.8672   1.8708   1.9133   1.9206   1.9505   1.9597   1.9623
     2.0119   2.0190   2.0294   2.0339   2.0531   2.0698   2.1141   2.1274
     2.1340   2.1444   2.1474   2.1579   2.1662   2.1777   2.1833   2.1999
     2.2425   2.2528   2.2608   2.2834   2.2886   2.3045   2.3251   2.3523
     2.3917   2.4799   2.6035   2.7646   2.7648   2.8035   2.9568   3.0561
     3.1212   3.2405   3.3129   3.7063   4.0310   4.1411   4.1921   4.4139
     4.4858   4.5048   4.8579   5.0806   5.1445   5.1599   5.6440   5.7195
     6.2895   6.3722   6.3725   6.5005   6.8968   6.9185   7.1607   7.3972
     7.4623   7.4818   8.0401   8.3709   8.4331   8.5821   8.8629   8.8925
     8.9101   8.9444   9.0380   9.1342   9.1443   9.2211   9.3737   9.4599
     9.5254   9.5666   9.5809   9.6038   9.7783   9.9420  10.1476  10.2518
    10.3500  10.3938  10.6700  10.8022  10.8910  10.9709  10.9949  11.0206
    11.0887  11.2446  11.4233  11.5045  11.5120  11.6806  11.8255  11.8882
    11.9180  12.0104  12.1595  12.2479  12.2888  12.3193  12.3702  12.5608
    12.6996  12.8744  13.0702  13.1101  13.1262  13.1495  13.2297  13.2649
    13.3792  13.4472  13.4996

     the Fermi energy is     2.0354 ev

!    total energy              =   -3656.49776722 Ry
     Harris-Foulkes estimate   =   -3656.49777152 Ry
     estimated scf accuracy    <       0.00000064 Ry

     The total energy is the sum of the following terms:

     one-electron contribution =  -24274.32999557 Ry
     hartree contribution      =   12537.57334008 Ry
     xc contribution           =   -1514.19734099 Ry
     ewald contribution        =    9594.61960516 Ry
     electric field correction =       0.00024937 Ry
     smearing contrib. (-TS)   =      -0.16362528 Ry

     total magnetization       =    22.81 Bohr mag/cell
     absolute magnetization    =    26.72 Bohr mag/cell

     convergence has been achieved in  13 iterations

     Forces acting on atoms (Ry/au):

     negative rho (up, down):  2.931E-04 2.219E-04
     atom    1 type  1   force =     0.00028386    0.00017174    0.00484200
     atom    2 type  1   force =     0.00004399   -0.00013737   -0.00387776
     atom    3 type  1   force =    -0.00005243   -0.00000255   -0.00064435
     atom    4 type  1   force =     0.00001280    0.00000171    0.00097547
     atom    5 type  1   force =     0.00027422    0.00017961    0.00485286
     atom    6 type  1   force =    -0.00012512    0.00011112   -0.00387786
     atom    7 type  1   force =    -0.00012543    0.00019289   -0.00046760
     atom    8 type  1   force =    -0.00000221   -0.00058477   -0.00002892
     atom    9 type  1   force =     0.00008410    0.00001955    0.00483980
     atom   10 type  1   force =    -0.00015890   -0.00011180   -0.00566265
     atom   11 type  1   force =     0.00014048   -0.00021288   -0.00045003
     atom   12 type  1   force =    -0.00048840    0.00030756   -0.00002813
     atom   13 type  1   force =    -0.00022177    0.00010858    0.00486915
     atom   14 type  1   force =     0.00079059   -0.00054049   -0.00470666
     atom   15 type  1   force =     0.00008713   -0.00013321   -0.00062900
     atom   16 type  1   force =    -0.00057490    0.00023569    0.00001723
     atom   17 type  1   force =    -0.00002294   -0.00000312    0.00447110
     atom   18 type  1   force =     0.00006301    0.00002481   -0.00388106
     atom   19 type  1   force =    -0.00009529    0.00011704   -0.00063709
     atom   20 type  1   force =    -0.00007760   -0.00063862    0.00003284
     atom   21 type  1   force =    -0.00003344   -0.00026605    0.00487379
     atom   22 type  1   force =    -0.00009839    0.00095174   -0.00471370
     atom   23 type  1   force =    -0.00027084   -0.00014419    0.00049871
     atom   24 type  1   force =    -0.00009039   -0.00002580   -0.00090024
     atom   25 type  1   force =    -0.00006089   -0.00001621    0.00458698
     atom   26 type  1   force =    -0.00083580   -0.00045260   -0.00473054
     atom   27 type  1   force =    -0.00003991    0.00020441    0.00052366
     atom   28 type  1   force =     0.00056302    0.00033565    0.00001568
     atom   29 type  1   force =    -0.00025044    0.00009529    0.00483597
     atom   30 type  1   force =     0.00006145    0.00025160   -0.00568878
     atom   31 type  1   force =     0.00022257    0.00008760   -0.00041765
     atom   32 type  1   force =     0.00008563    0.00002605   -0.00000737
     atom   33 type  1   force =    -0.00005135   -0.00028845    0.00483034
     atom   34 type  1   force =     0.00025822   -0.00009856   -0.00569472
     atom   35 type  1   force =     0.00013115   -0.00010964    0.00053399
     atom   36 type  1   force =     0.00057534    0.00034362    0.00003127
     atom   37 type  2   force =    -0.00000113    0.00000004    0.00141325

     Total force =     0.020664     Total SCF correction =     0.002555
     SCF correction compared to forces is large: reduce conv_thr to get better values
 !ASE

     Writing output data file calc.save

     General routines

     Parallel routines

   This run was terminated on:  19:32:20  10Mar2017

   JOB DONE.