     Program PWSCF v.5.1rc2 (svn rev. ) starts on 23Feb2018 at 23:45: 8

     Current dimensions of program PWSCF are:
     Max number of different atomic species (ntypx) = 10
     Max number of k-points (npk) =  40000
     Max angular momentum in pseudopotentials (lmaxx) =  3
     Presently no symmetry can be used with electric field

     IMPORTANT: XC functional enforced from input :
     Exchange-correlation      = RPBE ( 1  4 28  4 0)
     Any further DFT definition will be discarded
     Please, verify this is what you really want

               file Ni.UPF: wavefunction(s)  3D renormalized

     Subspace diagonalization in iterative solution of the eigenvalue problem:
     a serial algorithm will be used

     Generating pointlists ...
     new r_m :   0.4125 (alat units)  0.7795 (a.u.) for type    1
     new r_m :   0.4125 (alat units)  0.7795 (a.u.) for type    2

     bravais-lattice index     =            0
     lattice parameter (alat)  =       1.8897  a.u.
     unit-cell volume          =   10207.8337 (a.u.)^3
     number of atoms/cell      =           37
     number of atomic types    =            2
     number of electrons       =       366.00
     number of Kohn-Sham states=          283
     kinetic-energy cutoff     =      44.0992  Ry
     charge density cutoff     =     440.9919  Ry
     convergence threshold     =      7.3E-07
     mixing beta               =       0.1000
     number of iterations used =           10  plain     mixing
     Exchange-correlation      = RPBE ( 1  4 28  4 0)
     nstep                     =           50

     celldm(1)=   1.889726  celldm(2)=   0.000000  celldm(3)=   0.000000
     celldm(4)=   0.000000  celldm(5)=   0.000000  celldm(6)=   0.000000

     crystal axes: (cart. coord. in units of alat)
               a(1) = (  13.073539   0.000000   0.000000 )
               a(2) = (  -4.357846   6.162925   0.000000 )
               a(3) = (   0.000000   0.000000  18.774005 )

     reciprocal axes: (cart. coord. in units 2 pi/alat)
               b(1) = (  0.076490  0.054087  0.000000 )
               b(2) = (  0.000000  0.162261  0.000000 )
               b(3) = (  0.000000  0.000000  0.053265 )

     PseudoPot. # 1 for Ni read from file:
     /home/alatimer/bin/psp/esp_psp_w_gbrvRu/Ni.UPF
     MD5 check sum: 8b2449ee0060d9c33484ccd47bb60870
     Pseudo is Ultrasoft + core correction, Zval = 10.0
     Generated using "atomic" code by A. Dal Corso  v.5.0.2 svn rev. 9415
     Using radial grid of 1195 points,  6 beta functions with:
                l(1) =   0
                l(2) =   0
                l(3) =   1
                l(4) =   1
                l(5) =   2
                l(6) =   2
     Q(r) pseudized with 0 coefficients

     PseudoPot. # 2 for  O read from file:
     /home/alatimer/bin/psp/esp_psp_w_gbrvRu/O.UPF
     MD5 check sum: e057bbcf3229fb5d8c36c0c92f9568b4
     Pseudo is Ultrasoft + core correction, Zval =  6.0
     Generated using "atomic" code by A. Dal Corso  v.5.0.2 svn rev. 9415
     Using radial grid of 1095 points,  4 beta functions with:
                l(1) =   0
                l(2) =   0
                l(3) =   1
                l(4) =   1
     Q(r) pseudized with 0 coefficients

     atomic species   valence    mass     pseudopotential
        Ni1           10.00    58.69340     Ni( 1.00)
        O1             6.00    15.99940      O( 1.00)

     Starting magnetic structure
     atomic species   magnetization
        Ni1          0.300
        O1           0.500

     No symmetry found

   Cartesian axes

     site n.     atom                  positions (alat units)
         1           Ni1 tau(   1) = (   0.0000000   0.0000000   7.5000000  )
         2           Ni1 tau(   2) = (   2.1789231   0.0000000   8.7580018  )
         3           Ni1 tau(   3) = (   0.0000000   0.0000000  10.0160037  )
         4           Ni1 tau(   4) = (   2.1789231   0.0000000  11.2740055  )
         5           Ni1 tau(   5) = (  -1.4526154   2.0543084   7.5000000  )
         6           Ni1 tau(   6) = (   0.7263077   2.0543084   8.7580018  )
         7           Ni1 tau(   7) = (  -1.4526154   2.0543084  10.0160037  )
         8           Ni1 tau(   8) = (   0.7263077   2.0543084  11.2740055  )
         9           Ni1 tau(   9) = (  -2.9052308   4.1086168   7.5000000  )
        10           Ni1 tau(  10) = (  -0.7263077   4.1086168   8.7580018  )
        11           Ni1 tau(  11) = (  -2.9052308   4.1086168  10.0160037  )
        12           Ni1 tau(  12) = (  -0.7263077   4.1086168  11.2740055  )
        13           Ni1 tau(  13) = (   4.3578462   0.0000000   7.5000000  )
        14           Ni1 tau(  14) = (   6.5367693   0.0000000   8.7580018  )
        15           Ni1 tau(  15) = (   4.3578462   0.0000000  10.0160037  )
        16           Ni1 tau(  16) = (   6.5367693   0.0000000  11.2740055  )
        17           Ni1 tau(  17) = (   2.9052308   2.0543084   7.5000000  )
        18           Ni1 tau(  18) = (   5.0841539   2.0543084   8.7580018  )
        19           Ni1 tau(  19) = (   2.9052308   2.0543084  10.0160037  )
        20           Ni1 tau(  20) = (   5.0841539   2.0543084  11.2740055  )
        21           Ni1 tau(  21) = (   1.4526154   4.1086168   7.5000000  )
        22           Ni1 tau(  22) = (   3.6315385   4.1086168   8.7580018  )
        23           Ni1 tau(  23) = (   1.4526154   4.1086168  10.0160037  )
        24           Ni1 tau(  24) = (   3.6315385   4.1086168  11.2740055  )
        25           Ni1 tau(  25) = (   8.7156924   0.0000000   7.5000000  )
        26           Ni1 tau(  26) = (  10.8946154   0.0000000   8.7580018  )
        27           Ni1 tau(  27) = (   8.7156924   0.0000000  10.0160037  )
        28           Ni1 tau(  28) = (  10.8946154   0.0000000  11.2740055  )
        29           Ni1 tau(  29) = (   7.2630770   2.0543084   7.5000000  )
        30           Ni1 tau(  30) = (   9.4420001   2.0543084   8.7580018  )
        31           Ni1 tau(  31) = (   7.2630770   2.0543084  10.0160037  )
        32           Ni1 tau(  32) = (   9.4420001   2.0543084  11.2740055  )
        33           Ni1 tau(  33) = (   5.8104616   4.1086168   7.5000000  )
        34           Ni1 tau(  34) = (   7.9893847   4.1086168   8.7580018  )
        35           Ni1 tau(  35) = (   5.8104616   4.1086168  10.0160037  )
        36           Ni1 tau(  36) = (   7.9893847   4.1086168  11.2740055  )
        37           O1  tau(  37) = (   0.7263077   2.0543084  12.9740055  )

     number of k points=    10  Fermi-Dirac smearing, width (Ry)=  0.0073
                       cart. coord. in units 2pi/alat
        k(    1) = (   0.0000000   0.0000000   0.0000000), wk =   0.1111111
        k(    2) = (   0.0000000   0.0540869   0.0000000), wk =   0.2222222
        k(    3) = (   0.0254968   0.0180290   0.0000000), wk =   0.2222222
        k(    4) = (   0.0254968   0.0721158   0.0000000), wk =   0.2222222
        k(    5) = (   0.0254968  -0.0360579   0.0000000), wk =   0.2222222
        k(    6) = (   0.0000000   0.0000000   0.0000000), wk =   0.1111111
        k(    7) = (   0.0000000   0.0540869   0.0000000), wk =   0.2222222
        k(    8) = (   0.0254968   0.0180290   0.0000000), wk =   0.2222222
        k(    9) = (   0.0254968   0.0721158   0.0000000), wk =   0.2222222
        k(   10) = (   0.0254968  -0.0360579   0.0000000), wk =   0.2222222

     Largest allocated arrays     est. size (Mb)     dimensions
     Largest temporary arrays     est. size (Mb)     dimensions

     Check: negative/imaginary core charge=   -0.000003    0.000000

     Initial potential from superposition of free atoms
     Check: negative starting charge=(component1):   -0.000543
     Check: negative starting charge=(component2):   -0.000285

     starting charge  365.99096, renormalised to  366.00000

     negative rho (up, down):  5.435E-04 2.852E-04

     Adding external electric field

     Computed dipole along edir(3) :
        Dipole               -0.0010 Ry au,         -0.0025 Debye
        Dipole field         -0.0000 Ry au

        Potential amp.        0.0001 Ry
        Total length         34.5908 bohr

[...]

     Starting wfc are  328 randomized atomic wfcs

     Self-consistent Calculation

     iteration #  1     ecut=    44.10 Ry     beta=0.10
     Davidson diagonalization with overlap
     ethr =  1.00E-02,  avg # of iterations =  7.1

[...]

     Magnetic moment per site:
     atom:    1    charge:    3.9567    magn:    1.1247    constr:    0.0000
     atom:    2    charge:    3.9767    magn:    1.1070    constr:    0.0000
     atom:    3    charge:    3.9775    magn:    1.1068    constr:    0.0000
     atom:    4    charge:    3.9565    magn:    1.1252    constr:    0.0000
     atom:    5    charge:    3.9568    magn:    1.1247    constr:    0.0000
     atom:    6    charge:    3.9791    magn:    1.1040    constr:    0.0000
     atom:    7    charge:    3.9775    magn:    1.1068    constr:    0.0000
     atom:    8    charge:    3.9440    magn:    1.1385    constr:    0.0000
     atom:    9    charge:    3.9562    magn:    1.1249    constr:    0.0000
     atom:   10    charge:    3.9767    magn:    1.1070    constr:    0.0000
     atom:   11    charge:    3.9765    magn:    1.1072    constr:    0.0000
     atom:   12    charge:    3.9565    magn:    1.1253    constr:    0.0000
     atom:   13    charge:    3.9562    magn:    1.1249    constr:    0.0000
     atom:   14    charge:    3.9767    magn:    1.1069    constr:    0.0000
     atom:   15    charge:    3.9764    magn:    1.1072    constr:    0.0000
     atom:   16    charge:    3.9562    magn:    1.1248    constr:    0.0000
     atom:   17    charge:    3.9567    magn:    1.1247    constr:    0.0000
     atom:   18    charge:    3.9767    magn:    1.1069    constr:    0.0000
     atom:   19    charge:    3.9775    magn:    1.1068    constr:    0.0000
     atom:   20    charge:    3.9562    magn:    1.1248    constr:    0.0000
     atom:   21    charge:    3.9567    magn:    1.1247    constr:    0.0000
     atom:   22    charge:    3.9765    magn:    1.1071    constr:    0.0000
     atom:   23    charge:    3.9775    magn:    1.1068    constr:    0.0000
     atom:   24    charge:    3.9558    magn:    1.1252    constr:    0.0000
     atom:   25    charge:    3.9562    magn:    1.1248    constr:    0.0000
     atom:   26    charge:    3.9765    magn:    1.1071    constr:    0.0000
     atom:   27    charge:    3.9765    magn:    1.1072    constr:    0.0000
     atom:   28    charge:    3.9558    magn:    1.1252    constr:    0.0000
     atom:   29    charge:    3.9555    magn:    1.1256    constr:    0.0000
     atom:   30    charge:    3.9767    magn:    1.1069    constr:    0.0000
     atom:   31    charge:    3.9766    magn:    1.1070    constr:    0.0000
     atom:   32    charge:    3.9562    magn:    1.1248    constr:    0.0000
     atom:   33    charge:    3.9562    magn:    1.1248    constr:    0.0000
     atom:   34    charge:    3.9767    magn:    1.1069    constr:    0.0000
     atom:   35    charge:    3.9764    magn:    1.1071    constr:    0.0000
[...]
    -2.6050  -2.5945  -2.5863  -2.5842  -2.5739  -2.5516  -2.5445  -2.4313
    -2.4175  -2.4004  -2.3266  -2.2711  -2.2572  -2.2526  -2.2249  -2.2190
    -2.2084  -2.1993  -2.1989  -2.1746  -2.1526  -2.1426  -2.0988  -2.0973
    -2.0929  -2.0727  -2.0637  -2.0517  -1.9925  -1.9778  -1.9775  -1.9730
    -1.9675  -1.9273  -1.8812  -1.8241  -1.8173  -1.7988  -1.7912  -1.7840
    -1.7810  -1.7786  -1.7769  -1.7707  -1.7601  -1.7598  -1.7503  -1.7396
    -1.6608  -1.6549  -1.6467  -1.6349  -1.6152  -1.5374  -1.4638  -1.4631
    -1.4565  -1.4260  -1.4223  -1.4038  -1.3682  -1.3638  -1.3449  -1.3350
    -1.3033  -1.2934  -1.2611  -1.2544  -1.2420  -1.2267  -1.2006  -1.1990
    -1.1979  -1.1656  -1.1629  -1.1570  -1.1500  -1.1381  -1.1214  -1.1038
    -1.0674  -1.0403  -0.9963  -0.9937  -0.9670  -0.9661  -0.9592  -0.9575
    -0.9516  -0.9473  -0.9243  -0.8876  -0.8598  -0.8483  -0.8446  -0.8330
    -0.8328  -0.7957  -0.7743  -0.7643  -0.7565  -0.7501  -0.7368  -0.7299
    -0.7064  -0.7055  -0.6954  -0.6792  -0.6613  -0.6507  -0.6392  -0.6324
    -0.6213  -0.6067  -0.6014  -0.5992  -0.5785  -0.5665  -0.5647  -0.5591
    -0.5584  -0.5489  -0.5460  -0.5302  -0.5278  -0.4980  -0.4937  -0.4874
    -0.4841  -0.4787  -0.4724  -0.4420  -0.4260  -0.4219  -0.4082  -0.3798
    -0.3591  -0.3521  -0.3450  -0.3444  -0.3435  -0.3361  -0.3339  -0.2960
    -0.2684  -0.2480  -0.2346  -0.2289  -0.1258  -0.0350   0.3674   0.4362
     0.4482   1.0651   1.1759   1.3616   1.3935   1.4863   1.6422   2.5019
     2.5172   2.5888   2.6756   2.7900   2.7952   2.8087   2.8408   2.8836
     3.2284   3.5229   3.8748   3.8820   4.0704   4.2352   4.3255   4.5680
     5.0235   5.1154   5.3169   5.4096   5.4188   5.4292   5.4647   5.4686
     5.5185   5.5269   5.9866   6.0336   6.0345   6.0620   6.3666   6.3787
     6.5535   6.6545   6.7188   6.8095   6.8503   7.0891   7.2105   7.3060
     7.5490   7.5737   7.6064   7.6065   7.6165   7.7153   7.8261   7.8855
     7.9321   7.9457   8.0202   8.0472   8.0476   8.0629   8.3299   8.4016
     8.4453   8.4460   8.4573   8.4817   8.5132   8.6439   8.6533   8.7650
     8.7969   9.0005   9.0039   9.0091   9.2498   9.2514   9.3611   9.4629
     9.4699   9.4860   9.4985

[...]

 ------ SPIN DOWN ----------

[...]

     the Fermi energy is     0.2638 ev

!    total energy              =   -3655.75225717 Ry
     Harris-Foulkes estimate   =   -3655.75225592 Ry
     estimated scf accuracy    <       0.00000050 Ry

     The total energy is the sum of the following terms:

     one-electron contribution =  -18724.58209416 Ry
     hartree contribution      =    9740.26285437 Ry
     xc contribution           =   -1513.43938190 Ry
     ewald contribution        =    6842.19488356 Ry
     electric field correction =       0.00039729 Ry
     smearing contrib. (-TS)   =      -0.18891632 Ry

[...]

     convergence has been achieved in  58 iterations

     Forces acting on atoms (Ry/au):

     negative rho (up, down):  4.085E-04 3.024E-04
     atom    1 type  1   force =     0.00023845    0.00067080    0.01880151
     atom    2 type  1   force =    -0.00009265    0.00005979   -0.01088157
     atom    3 type  1   force =    -0.00169518   -0.00172593    0.00445354
     atom    4 type  1   force =     0.00348776   -0.00495383   -0.01454707
     atom    5 type  1   force =     0.00071743   -0.00000433    0.01880145
     atom    6 type  1   force =     0.00001197   -0.00000164   -0.01668319
     atom    7 type  1   force =    -0.00218619   -0.00102940    0.00445898
     atom    8 type  1   force =     0.00002474    0.00000937    0.03671649
     atom    9 type  1   force =     0.00033823    0.00024617    0.01856182
     atom   10 type  1   force =     0.00002217   -0.00009907   -0.01088354
     atom   11 type  1   force =     0.00102071    0.00073250    0.01110325
     atom   12 type  1   force =    -0.00351059    0.00494595   -0.01454364
     atom   13 type  1   force =    -0.00037956   -0.00025898    0.01853291
     atom   14 type  1   force =    -0.00002822    0.00003063   -0.01023977
     atom   15 type  1   force =    -0.00106747   -0.00074525    0.01114640
     atom   16 type  1   force =    -0.00005805    0.00055666   -0.01977491
     atom   17 type  1   force =    -0.00075362    0.00003761    0.01880921
     atom   18 type  1   force =     0.00001457   -0.00002939   -0.01023995
     atom   19 type  1   force =     0.00216739    0.00110527    0.00449739
     atom   20 type  1   force =     0.00050025   -0.00023756   -0.01977645
     atom   21 type  1   force =    -0.00021223   -0.00072777    0.01880265
     atom   22 type  1   force =    -0.00015160   -0.00011740   -0.01084860
     atom   23 type  1   force =     0.00176938    0.00166928    0.00449617
     atom   24 type  1   force =     0.00133999    0.00093918   -0.01961549
     atom   25 type  1   force =     0.00008180   -0.00009729    0.01886160
     atom   26 type  1   force =     0.00015448    0.00009717   -0.01090929
     atom   27 type  1   force =    -0.00006292    0.00003560    0.01149929
     atom   28 type  1   force =    -0.00135252   -0.00096432   -0.01962530
     atom   29 type  1   force =     0.00003100    0.00003118    0.01942823
     atom   30 type  1   force =    -0.00002866    0.00011620   -0.01024990
     atom   31 type  1   force =     0.00003212    0.00003369    0.01117517
     atom   32 type  1   force =    -0.00054904    0.00032743   -0.01979864
     atom   33 type  1   force =    -0.00006012    0.00010316    0.01886560
     atom   34 type  1   force =     0.00009421   -0.00005818   -0.01024657
     atom   35 type  1   force =     0.00002198   -0.00007567    0.01149699
     atom   36 type  1   force =     0.00011873   -0.00062235   -0.01980575
     atom   37 type  2   force =     0.00000126    0.00000069   -0.03183900

     Total force =     0.101544     Total SCF correction =     0.002139
 !ASE

     Writing output data file calc.save
     Check: negative starting charge=(component1):   -0.000827
     NEW-OLD atomic charge density approx. for the potential

     Check: negative/imaginary core charge=   -0.000003    0.000000
     Check: negative starting charge=(component1):   -0.000873

[...]

     Writing output data file calc.save
     Check: negative starting charge=(component1):   -0.000883
     NEW-OLD atomic charge density approx. for the potential

     Check: negative/imaginary core charge=   -0.000003    0.000000
     Check: negative starting charge=(component1):   -0.000882

[...]

     Self-consistent Calculation

[...]

     total energy              =   -3655.76752905 Ry
     Harris-Foulkes estimate   =   -3655.76752924 Ry
     estimated scf accuracy    <       0.00000199 Ry

[...]

     iteration # 19     ecut=    44.10 Ry     beta=0.10
     Davidson diagonalization with overlap
     ethr =  4.67E-10,  avg # of iterations =  1.0

     negative rho (up, down):  4.424E-04 3.284E-04

[...]

     Adding external electric field

     Computed dipole along edir(3) :
        Dipole               -0.5688 Ry au,         -1.4458 Debye
        Dipole field         -0.0007 Ry au

        Potential amp.        0.0484 Ry
        Total length         34.5908 bohr

     Magnetic moment per site:
     atom:    1    charge:    3.9855    magn:    0.4376    constr:    0.0000
     atom:    2    charge:    3.9706    magn:    0.3834    constr:    0.0000
     atom:    3    charge:    3.9692    magn:    0.4129    constr:    0.0000
     atom:    4    charge:    3.9135    magn:    0.4404    constr:    0.0000
     atom:    5    charge:    3.9856    magn:    0.4376    constr:    0.0000
     atom:    6    charge:    3.9702    magn:    0.3378    constr:    0.0000
     atom:    7    charge:    3.9692    magn:    0.4129    constr:    0.0000
     atom:    8    charge:    3.9308    magn:    0.5489    constr:    0.0000
     atom:    9    charge:    3.9861    magn:    0.4318    constr:    0.0000
     atom:   10    charge:    3.9706    magn:    0.3834    constr:    0.0000
     atom:   11    charge:    3.9660    magn:    0.4001    constr:    0.0000
     atom:   12    charge:    3.9132    magn:    0.4404    constr:    0.0000
     atom:   13    charge:    3.9861    magn:    0.4317    constr:    0.0000
     atom:   14    charge:    3.9709    magn:    0.3964    constr:    0.0000
     atom:   15    charge:    3.9667    magn:    0.4002    constr:    0.0000
     atom:   16    charge:    3.8674    magn:    0.4142    constr:    0.0000
     atom:   17    charge:    3.9857    magn:    0.4375    constr:    0.0000
     atom:   18    charge:    3.9709    magn:    0.3964    constr:    0.0000
     atom:   19    charge:    3.9692    magn:    0.4128    constr:    0.0000
     atom:   20    charge:    3.8681    magn:    0.4142    constr:    0.0000
     atom:   21    charge:    3.9857    magn:    0.4375    constr:    0.0000
     atom:   22    charge:    3.9709    magn:    0.3967    constr:    0.0000
     atom:   23    charge:    3.9692    magn:    0.4129    constr:    0.0000
     atom:   24    charge:    3.8637    magn:    0.4139    constr:    0.0000
     atom:   25    charge:    3.9860    magn:    0.4316    constr:    0.0000
     atom:   26    charge:    3.9709    magn:    0.3967    constr:    0.0000
     atom:   27    charge:    3.9666    magn:    0.3890    constr:    0.0000
     atom:   28    charge:    3.8641    magn:    0.4140    constr:    0.0000
     atom:   29    charge:    3.9861    magn:    0.4223    constr:    0.0000
     atom:   30    charge:    3.9709    magn:    0.3965    constr:    0.0000
     atom:   31    charge:    3.9669    magn:    0.3965    constr:    0.0000
     atom:   32    charge:    3.8677    magn:    0.4142    constr:    0.0000
     atom:   33    charge:    3.9859    magn:    0.4317    constr:    0.0000
     atom:   34    charge:    3.9709    magn:    0.3965    constr:    0.0000
     atom:   35    charge:    3.9667    magn:    0.3890    constr:    0.0000
     atom:   36    charge:    3.8683    magn:    0.4143    constr:    0.0000
     atom:   37    charge:    2.0249    magn:    0.2919    constr:    0.0000

     End of self-consistent calculation

 ------ SPIN UP ------------

[...]

 ------ SPIN DOWN ----------

[...]

          k = 0.0255-0.0361 0.0000 ( 50488 PWs)   bands (ev):

   -16.4900  -7.2830  -6.4149  -6.0170  -6.0116  -5.2441  -5.2426  -4.5935
    -4.0006  -3.9658  -3.8596  -3.8305  -3.7475  -3.5389  -3.5374  -3.5325
    -3.4806  -3.4171  -3.2158  -3.2143  -3.1679  -3.1558  -3.1164  -3.0942
    -3.0288  -3.0048  -2.9965  -2.9596  -2.8829  -2.7797  -2.7775  -2.7320
    -2.6943  -2.6809  -2.6381  -2.6265  -2.5814  -2.5588  -2.5193  -2.4713
    -2.3851  -2.3561  -2.3039  -2.2603  -2.2554  -2.2277  -2.2201  -2.2075
    -2.1967  -2.1707  -2.1652  -2.1550  -2.1114  -2.0931  -2.0885  -1.9017
    -1.8793  -1.8661  -1.8538  -1.7974  -1.7308  -1.7263  -1.7081  -1.7059
    -1.6508  -1.6482  -1.6361  -1.6094  -1.5988  -1.5966  -1.5931  -1.5865
    -1.5750  -1.5717  -1.5429  -1.5354  -1.5308  -1.4880  -1.4673  -1.3647
    -1.3530  -1.3259  -1.3125  -1.2787  -1.2785  -1.2468  -1.2389  -1.2283
    -1.2154  -1.2093  -1.2008  -1.1574  -1.1507  -1.1403  -1.1225  -1.1097
    -1.0999  -1.0391  -1.0385  -1.0179  -1.0048  -0.9946  -0.9720  -0.9473
    -0.9393  -0.9007  -0.8972  -0.8734  -0.8534  -0.8420  -0.8409  -0.8295
    -0.7821  -0.7640  -0.7434  -0.7025  -0.6656  -0.6586  -0.6187  -0.6102
    -0.6097  -0.5804  -0.5726  -0.5653  -0.5435  -0.5155  -0.4827  -0.4623
    -0.4466  -0.4430  -0.4159  -0.3599  -0.3559  -0.3546  -0.3215  -0.2934
    -0.2846  -0.2659  -0.2317  -0.1970  -0.1719  -0.1549  -0.1140  -0.1030
    -0.0775  -0.0517  -0.0488  -0.0454  -0.0349  -0.0247  -0.0146  -0.0111
     0.0083   0.0233   0.0362   0.0532   0.0603   0.0705   0.1097   0.1107
     0.1355   0.1378   0.1407   0.1449   0.1881   0.1909   0.2063   0.2264
     0.2320   0.2348   0.2648   0.2756   0.2813   0.2836   0.2993   0.3064
     0.3137   0.3236   0.3459   0.3472   0.3970   0.4364   0.4417   0.4552
     0.4690   0.4855   0.4856   0.4953   0.4988   0.5404   0.5409   0.5892
     0.6233   0.7306   0.9800   0.9919   1.0662   1.1171   1.1905   1.2003
     1.3156   1.3967   1.5689   1.7387   1.8751   2.1700   2.2170   2.2401
     2.6127   2.7042   2.9313   2.9328   3.1172   3.2000   3.2620   3.3308
     3.4032   3.4403   3.5222   3.8823   4.1054   4.1515   4.1749   4.4698
     4.5750   4.9592   5.0304   5.0672   5.2101   5.3761   5.5096   5.6215
     5.7815   5.7878   5.8687   6.0325   6.3525   6.3600   6.4748   6.5160
     6.6523   6.6529   6.6709   6.6762   6.6996   6.7504   6.8942   7.0915
     7.1200   7.2191   7.2372   7.3948   7.5657   7.6628   7.9026   7.9200
     7.9811   8.0122   8.0717   8.1936   8.2786   8.3439   8.3593   8.4361
     8.5911   8.6028   8.7321   8.8233   8.8929   9.0817   9.1066   9.1321
     9.3669   9.4644   9.5351   9.5790   9.7039   9.7816   9.8014   9.8678
     9.9074   9.9367   9.9557

     the Fermi energy is     0.2472 ev

!    total energy              =   -3655.76752935 Ry
     Harris-Foulkes estimate   =   -3655.76752633 Ry
     estimated scf accuracy    <       0.00000062 Ry

     The total energy is the sum of the following terms:

     one-electron contribution =  -18908.36140948 Ry
     hartree contribution      =    9831.59963713 Ry
     xc contribution           =   -1513.64716550 Ry
     ewald contribution        =    6934.82662720 Ry
     electric field correction =       0.00039834 Ry
     smearing contrib. (-TS)   =      -0.18561703 Ry

     total magnetization       =    25.71 Bohr mag/cell
     absolute magnetization    =    29.44 Bohr mag/cell

     convergence has been achieved in  19 iterations

     Forces acting on atoms (Ry/au):

     negative rho (up, down):  4.424E-04 3.284E-04
     atom    1 type  1   force =     0.00012387    0.00059907    0.01808615
     atom    2 type  1   force =    -0.00003959   -0.00035879   -0.01833393
     atom    3 type  1   force =     0.00011806   -0.00027853   -0.00039127
     atom    4 type  1   force =     0.00002136   -0.00019027    0.00038571
     atom    5 type  1   force =     0.00062680   -0.00007581    0.01810267
     atom    6 type  1   force =    -0.00023461   -0.00011717   -0.01553594
     atom    7 type  1   force =    -0.00013297    0.00011380   -0.00040990
     atom    8 type  1   force =    -0.00005738   -0.00005693    0.00001649
     atom    9 type  1   force =     0.00020458    0.00015140    0.01861906
     atom   10 type  1   force =    -0.00031725    0.00006597   -0.01836235
     atom   11 type  1   force =     0.00009229    0.00021940   -0.00109368
     atom   12 type  1   force =    -0.00017700    0.00010352    0.00047256
     atom   13 type  1   force =    -0.00027818   -0.00021297    0.01849103
     atom   14 type  1   force =    -0.00019401   -0.00004139   -0.01846488
     atom   15 type  1   force =    -0.00026240   -0.00004841   -0.00084921
     atom   16 type  1   force =    -0.00031884   -0.00005611    0.00009276
     atom   17 type  1   force =    -0.00068075   -0.00002562    0.01796243
     atom   18 type  1   force =    -0.00007084   -0.00016276   -0.01843189
     atom   19 type  1   force =     0.00013934   -0.00027644   -0.00010057
     atom   20 type  1   force =    -0.00016105   -0.00024367   -0.00002188
     atom   21 type  1   force =    -0.00026902   -0.00062877    0.01797539
     atom   22 type  1   force =     0.00034524    0.00025986   -0.01971902
     atom   23 type  1   force =    -0.00015640    0.00012606   -0.00013312
     atom   24 type  1   force =    -0.00045015   -0.00035770    0.00027503
     atom   25 type  1   force =     0.00016085   -0.00002826    0.01879907
     atom   26 type  1   force =    -0.00013124   -0.00009909   -0.01971911
     atom   27 type  1   force =    -0.00003272    0.00015769   -0.00033027
     atom   28 type  1   force =     0.00058187    0.00035620    0.00015902
     atom   29 type  1   force =     0.00006580    0.00007835    0.01959781
     atom   30 type  1   force =     0.00031319    0.00026461   -0.01845593
     atom   31 type  1   force =    -0.00005605    0.00014200    0.00001015
     atom   32 type  1   force =     0.00023455    0.00033386    0.00003179
     atom   33 type  1   force =     0.00004756    0.00014405    0.01879516
     atom   34 type  1   force =     0.00033932    0.00020108   -0.01842490
     atom   35 type  1   force =     0.00023236   -0.00019913   -0.00032307
     atom   36 type  1   force =     0.00035927    0.00014200   -0.00008966
     atom   37 type  2   force =     0.00001415   -0.00000109    0.00131833

     Total force =     0.078374     Total SCF correction =     0.002518
 !ASE

     Writing output data file calc.save

     General routines

     Parallel routines

   This run was terminated on:   8:54:27  24Feb2018

   JOB DONE.