     Program PWSCF v.5.1rc2 (svn rev. ) starts on 18Mar2017 at 15:50:43

     Current dimensions of program PWSCF are:
     Max number of different atomic species (ntypx) = 10
     Max number of k-points (npk) =  40000
     Max angular momentum in pseudopotentials (lmaxx) =  3
     Presently no symmetry can be used with electric field

     IMPORTANT: XC functional enforced from input :
     Exchange-correlation      = RPBE ( 1  4 28  4 0)
     Any further DFT definition will be discarded
     Please, verify this is what you really want

               file Ni.UPF: wavefunction(s)  3D renormalized

     Subspace diagonalization in iterative solution of the eigenvalue problem:
     a serial algorithm will be used

     Found symmetry operation: I + ( -0.0000  0.3333  0.0000)
     This is a supercell, fractional translations are disabled

     Generating pointlists ...
     new r_m :   0.4125 (alat units)  0.7795 (a.u.) for type    1
     new r_m :   0.4125 (alat units)  0.7795 (a.u.) for type    2

     bravais-lattice index     =            0
     lattice parameter (alat)  =       1.8897  a.u.
     unit-cell volume          =    7046.4111 (a.u.)^3
     number of atoms/cell      =           45
     number of atomic types    =            2
     number of electrons       =       396.00
     number of Kohn-Sham states=          298
     kinetic-energy cutoff     =      44.0992  Ry
     charge density cutoff     =     440.9919  Ry
     convergence threshold     =      7.3E-07
     mixing beta               =       0.1000
     number of iterations used =           10  plain     mixing
     Exchange-correlation      = RPBE ( 1  4 28  4 0)
     nstep                     =           50

     celldm(1)=   1.889726  celldm(2)=   0.000000  celldm(3)=   0.000000
     celldm(4)=   0.000000  celldm(5)=   0.000000  celldm(6)=   0.000000

     crystal axes: (cart. coord. in units of alat)
               a(1) = (   7.548011   0.000000   0.000000 )
               a(2) = (  -3.774005   6.536769   0.000000 )
               a(3) = (   0.000000   0.000000  21.162925 )

     reciprocal axes: (cart. coord. in units 2 pi/alat)
               b(1) = (  0.132485  0.076490  0.000000 )
               b(2) = (  0.000000  0.152981  0.000000 )
               b(3) = (  0.000000  0.000000  0.047252 )

     PseudoPot. # 1 for Ni read from file:
     /home/alatimer/bin/psp/esp_psp_w_gbrvRu/Ni.UPF
     MD5 check sum: 8b2449ee0060d9c33484ccd47bb60870
     Pseudo is Ultrasoft + core correction, Zval = 10.0
     Generated using "atomic" code by A. Dal Corso  v.5.0.2 svn rev. 9415
     Using radial grid of 1195 points,  6 beta functions with:
                l(1) =   0
                l(2) =   0
                l(3) =   1
                l(4) =   1
                l(5) =   2
                l(6) =   2
     Q(r) pseudized with 0 coefficients

     PseudoPot. # 2 for  C read from file:
     /home/alatimer/bin/psp/esp_psp_w_gbrvRu/C.UPF
     MD5 check sum: ab446d787031eba755f1d5ee46644bb0
     Pseudo is Ultrasoft + core correction, Zval =  4.0
     Generated using "atomic" code by A. Dal Corso  v.5.0.2 svn rev. 9415
     Using radial grid of 1073 points,  4 beta functions with:
                l(1) =   0
                l(2) =   0
                l(3) =   1
                l(4) =   1
     Q(r) pseudized with 0 coefficients

     atomic species   valence    mass     pseudopotential
        Ni1           10.00    58.69340     Ni( 1.00)
        C1             4.00    12.01100      C( 1.00)

     Starting magnetic structure
     atomic species   magnetization
        Ni1          0.300
        C1           0.750

     No symmetry found

   Cartesian axes

     site n.     atom                  positions (alat units)
         1           Ni1 tau(   1) = (   0.0000000   0.0000000   7.5000000  )
         2           Ni1 tau(   2) = (   1.2580018   0.7263077   9.5543084  )
         3           Ni1 tau(   3) = (   0.0000000   1.4526154  11.6086168  )
         4           Ni1 tau(   4) = (   1.2580018   2.1789231  13.6629252  )
         5           Ni1 tau(   5) = (  -1.2580018   2.1789231   7.5000000  )
         6           Ni1 tau(   6) = (   0.0000000   2.9052308   9.5543084  )
         7           Ni1 tau(   7) = (  -1.2580018   3.6315385  11.6086168  )
         8           Ni1 tau(   8) = (  -0.0000000   4.3578462  13.6629252  )
         9           Ni1 tau(   9) = (  -2.5160037   4.3578462   7.5000000  )
        10           Ni1 tau(  10) = (  -1.2580018   5.0841539   9.5543084  )
        11           Ni1 tau(  11) = (  -2.5160037   5.8104616  11.6086168  )
        12           Ni1 tau(  12) = (  -1.2580018   6.5367693  13.6629252  )
        13           Ni1 tau(  13) = (   2.5160037   0.0000000   7.5000000  )
        14           Ni1 tau(  14) = (   3.7740055   0.7263077   9.5543084  )
        15           Ni1 tau(  15) = (   2.5160037   1.4526154  11.6086168  )
        16           Ni1 tau(  16) = (   3.7740055   2.1789231  13.6629252  )
        17           Ni1 tau(  17) = (   1.2580018   2.1789231   7.5000000  )
        18           Ni1 tau(  18) = (   2.5160037   2.9052308   9.5543084  )
        19           Ni1 tau(  19) = (   1.2580018   3.6315385  11.6086168  )
        20           Ni1 tau(  20) = (   2.5160037   4.3578462  13.6629252  )
        21           Ni1 tau(  21) = (  -0.0000000   4.3578462   7.5000000  )
        22           Ni1 tau(  22) = (   1.2580018   5.0841539   9.5543084  )
        23           Ni1 tau(  23) = (  -0.0000000   5.8104616  11.6086168  )
        24           Ni1 tau(  24) = (   1.2580018   6.5367693  13.6629252  )
        25           Ni1 tau(  25) = (   5.0320073   0.0000000   7.5000000  )
        26           Ni1 tau(  26) = (   6.2900092   0.7263077   9.5543084  )
        27           Ni1 tau(  27) = (   5.0320073   1.4526154  11.6086168  )
        28           Ni1 tau(  28) = (   6.2900092   2.1789231  13.6629252  )
        29           Ni1 tau(  29) = (   3.7740055   2.1789231   7.5000000  )
        30           Ni1 tau(  30) = (   5.0320073   2.9052308   9.5543084  )
        31           Ni1 tau(  31) = (   3.7740055   3.6315385  11.6086168  )
        32           Ni1 tau(  32) = (   5.0320073   4.3578462  13.6629252  )
        33           Ni1 tau(  33) = (   2.5160037   4.3578462   7.5000000  )
        34           Ni1 tau(  34) = (   3.7740055   5.0841539   9.5543084  )
        35           Ni1 tau(  35) = (   2.5160037   5.8104616  11.6086168  )
        36           Ni1 tau(  36) = (   3.7740055   6.5367693  13.6629252  )
        37           C1  tau(  37) = (   3.8160037   0.9000000  14.8629252  )
        38           C1  tau(  38) = (   6.3320073   0.9000000  14.8629252  )
        39           C1  tau(  39) = (   1.3000000   0.9000000  14.8629252  )
        40           C1  tau(  40) = (   3.8160037   5.2578462  14.8629252  )
        41           C1  tau(  41) = (  -1.2160037   5.2578462  14.8629252  )
        42           C1  tau(  42) = (   5.0740055   3.0789231  14.8629252  )
        43           C1  tau(  43) = (   0.0419982   3.0789231  14.8629252  )
        44           C1  tau(  44) = (   1.3000000   5.2578462  14.8629252  )
        45           C1  tau(  45) = (   2.5580018   3.0789231  14.8629252  )

     number of k points=    10  Fermi-Dirac smearing, width (Ry)=  0.0073
                       cart. coord. in units 2pi/alat
        k(    1) = (   0.0000000   0.0000000   0.0000000), wk =   0.1111111
        k(    2) = (   0.0000000   0.0509936   0.0000000), wk =   0.2222222
        k(    3) = (   0.0441617   0.0254968   0.0000000), wk =   0.2222222
        k(    4) = (   0.0441617   0.0764904   0.0000000), wk =   0.2222222
        k(    5) = (   0.0441617  -0.0254968   0.0000000), wk =   0.2222222
        k(    6) = (   0.0000000   0.0000000   0.0000000), wk =   0.1111111
        k(    7) = (   0.0000000   0.0509936   0.0000000), wk =   0.2222222
        k(    8) = (   0.0441617   0.0254968   0.0000000), wk =   0.2222222
        k(    9) = (   0.0441617   0.0764904   0.0000000), wk =   0.2222222
        k(   10) = (   0.0441617  -0.0254968   0.0000000), wk =   0.2222222

     Largest allocated arrays     est. size (Mb)     dimensions
     Largest temporary arrays     est. size (Mb)     dimensions

     Initial potential from superposition of free atoms
     Check: negative starting charge=(component1):   -0.000303
     Check: negative starting charge=(component2):   -0.000173

     starting charge  395.99059, renormalised to  396.00000

     negative rho (up, down):  3.030E-04 1.725E-04

     Adding external electric field

     Computed dipole along edir(3) :
        Dipole               -0.0039 Ry au,         -0.0099 Debye
        Dipole field         -0.0000 Ry au

        Potential amp.        0.0005 Ry
        Total length         38.9923 bohr

[...]

     Starting wfc are  360 randomized atomic wfcs

     Self-consistent Calculation

     iteration #  1     ecut=    44.10 Ry     beta=0.10
     Davidson diagonalization with overlap
     ethr =  1.00E-02,  avg # of iterations =  7.3

[...]

     Magnetic moment per site:
     atom:    1    charge:    3.9450    magn:    1.1294    constr:    0.0000
     atom:    2    charge:    3.9670    magn:    1.1122    constr:    0.0000
     atom:    3    charge:    3.9740    magn:    1.1057    constr:    0.0000
     atom:    4    charge:    3.9571    magn:    1.1033    constr:    0.0000
     atom:    5    charge:    3.9450    magn:    1.1294    constr:    0.0000
     atom:    6    charge:    3.9670    magn:    1.1122    constr:    0.0000
     atom:    7    charge:    3.9740    magn:    1.1057    constr:    0.0000
     atom:    8    charge:    3.9571    magn:    1.1033    constr:    0.0000
     atom:    9    charge:    3.9450    magn:    1.1294    constr:    0.0000
     atom:   10    charge:    3.9670    magn:    1.1122    constr:    0.0000
     atom:   11    charge:    3.9740    magn:    1.1057    constr:    0.0000
     atom:   12    charge:    3.9571    magn:    1.1033    constr:    0.0000
     atom:   13    charge:    3.9450    magn:    1.1294    constr:    0.0000
     atom:   14    charge:    3.9670    magn:    1.1122    constr:    0.0000
     atom:   15    charge:    3.9740    magn:    1.1057    constr:    0.0000
     atom:   16    charge:    3.9571    magn:    1.1033    constr:    0.0000
     atom:   17    charge:    3.9450    magn:    1.1294    constr:    0.0000
     atom:   18    charge:    3.9670    magn:    1.1122    constr:    0.0000
     atom:   19    charge:    3.9740    magn:    1.1057    constr:    0.0000
     atom:   20    charge:    3.9571    magn:    1.1033    constr:    0.0000
     atom:   21    charge:    3.9450    magn:    1.1294    constr:    0.0000
     atom:   22    charge:    3.9670    magn:    1.1122    constr:    0.0000
     atom:   23    charge:    3.9740    magn:    1.1057    constr:    0.0000
     atom:   24    charge:    3.9571    magn:    1.1033    constr:    0.0000
     atom:   25    charge:    3.9450    magn:    1.1294    constr:    0.0000
     atom:   26    charge:    3.9670    magn:    1.1122    constr:    0.0000
     atom:   27    charge:    3.9740    magn:    1.1057    constr:    0.0000
[...]
    11.1771  11.2547  11.2548  11.7247  11.7247  11.8415  11.8415  11.8465
    11.8465  11.8577  11.8577  11.9302  11.9302  11.9400  11.9400  12.0096
    12.0096  12.7581  12.7581  12.8716  12.8716  12.9090  12.9090  13.0288
    13.0288  13.2981

[...]

 ------ SPIN DOWN ----------

[...]

     the Fermi energy is     2.6064 ev

!    total energy              =   -3728.56241596 Ry
     Harris-Foulkes estimate   =   -3728.56243386 Ry
     estimated scf accuracy    <       0.00000068 Ry

     The total energy is the sum of the following terms:

     one-electron contribution =  -25867.69760846 Ry
     hartree contribution      =   13349.55823801 Ry
     xc contribution           =   -1541.61465220 Ry
     ewald contribution        =   10331.34570038 Ry
     electric field correction =       0.00104435 Ry
     smearing contrib. (-TS)   =      -0.15513804 Ry

[...]

     convergence has been achieved in  82 iterations

     Forces acting on atoms (Ry/au):

     negative rho (up, down):  2.311E-04 2.060E-04
     atom    1 type  1   force =    -0.00003912    0.00005773    0.00459207
     atom    2 type  1   force =     0.00016699    0.00056910   -0.00478105
     atom    3 type  1   force =     0.00048187    0.00248422   -0.02445854
     atom    4 type  1   force =     0.00363769    0.04206505    0.01778933
     atom    5 type  1   force =     0.00001977    0.00004398    0.00460370
     atom    6 type  1   force =     0.00016775    0.00059804   -0.00480234
     atom    7 type  1   force =     0.00046062    0.00248107   -0.02447156
     atom    8 type  1   force =     0.00361644    0.04204519    0.01777337
     atom    9 type  1   force =     0.00001296    0.00001014    0.00461989
     atom   10 type  1   force =     0.00017989    0.00050189   -0.00475353
     atom   11 type  1   force =     0.00048721    0.00239320   -0.02445665
     atom   12 type  1   force =     0.00362742    0.04203014    0.01778811
     atom   13 type  1   force =     0.00004478    0.00004581    0.00462188
     atom   14 type  1   force =     0.00009163    0.00050584   -0.00478624
     atom   15 type  1   force =     0.00044633    0.00245616   -0.02447645
     atom   16 type  1   force =     0.00359391    0.04205273    0.01779106
     atom   17 type  1   force =    -0.00000733    0.00009591    0.00463657
     atom   18 type  1   force =     0.00007429    0.00054948   -0.00477204
     atom   19 type  1   force =     0.00043898    0.00244381   -0.02450233
     atom   20 type  1   force =     0.00360618    0.04201652    0.01778518
     atom   21 type  1   force =     0.00005122    0.00002468    0.00464739
     atom   22 type  1   force =     0.00008048    0.00045902   -0.00479979
     atom   23 type  1   force =     0.00041779    0.00238533   -0.02448185
     atom   24 type  1   force =     0.00358622    0.04201744    0.01780495
     atom   25 type  1   force =    -0.00001515    0.00000261    0.00461325
     atom   26 type  1   force =     0.00008333    0.00051827   -0.00482976
     atom   27 type  1   force =     0.00037891    0.00245033   -0.02445734
     atom   28 type  1   force =     0.00361563    0.04207748    0.01780967
     atom   29 type  1   force =    -0.00002162    0.00002839    0.00462884
     atom   30 type  1   force =     0.00009959    0.00054509   -0.00477582
     atom   31 type  1   force =     0.00040686    0.00241856   -0.02447384
     atom   32 type  1   force =     0.00362362    0.04203693    0.01778774
     atom   33 type  1   force =    -0.00007431    0.00002075    0.00464327
     atom   34 type  1   force =     0.00008128    0.00046154   -0.00476829
     atom   35 type  1   force =     0.00040208    0.00235051   -0.02446365
     atom   36 type  1   force =     0.00363218    0.04202272    0.01781725
     atom   37 type  2   force =    -0.00416159   -0.04502952    0.00683968
     atom   38 type  2   force =    -0.00416187   -0.04502942    0.00684033
     atom   39 type  2   force =    -0.00416197   -0.04502959    0.00683955
     atom   40 type  2   force =    -0.00416182   -0.04502947    0.00684000
     atom   41 type  2   force =    -0.00416190   -0.04502939    0.00683917
     atom   42 type  2   force =    -0.00416176   -0.04502973    0.00683960
     atom   43 type  2   force =    -0.00416216   -0.04502943    0.00683968
     atom   44 type  2   force =    -0.00416156   -0.04502929    0.00683969
     atom   45 type  2   force =    -0.00416172   -0.04502983    0.00683981

     Total force =     0.208675     Total SCF correction =     0.003625
 !ASE

     Writing output data file calc.save
     Check: negative starting charge=(component1):   -0.000467
     NEW-OLD atomic charge density approx. for the potential
     Check: negative starting charge=(component1):   -0.000485

[...]

     Total force =     0.020649     Total SCF correction =     0.001833
 !ASE

     Writing output data file calc.save
     Check: negative starting charge=(component1):   -0.000451
     NEW-OLD atomic charge density approx. for the potential
     Check: negative starting charge=(component1):   -0.000451

[...]

     Self-consistent Calculation

[...]

     total energy              =   -3728.66153522 Ry
     Harris-Foulkes estimate   =   -3728.66153451 Ry
     estimated scf accuracy    <       0.00000095 Ry

[...]

     iteration # 19     ecut=    44.10 Ry     beta=0.10
     Davidson diagonalization with overlap
     ethr =  2.39E-10,  avg # of iterations =  1.0

     negative rho (up, down):  2.162E-04 2.048E-04

[...]

     Adding external electric field

     Computed dipole along edir(3) :
        Dipole               -0.6080 Ry au,         -1.5454 Debye
        Dipole field         -0.0011 Ry au

        Potential amp.        0.0846 Ry
        Total length         38.9923 bohr

     Magnetic moment per site:
     atom:    1    charge:    3.9710    magn:    0.3917    constr:    0.0000
     atom:    2    charge:    3.9690    magn:    0.3971    constr:    0.0000
     atom:    3    charge:    3.9548    magn:    0.2208    constr:    0.0000
     atom:    4    charge:    3.7026    magn:    0.0257    constr:    0.0000
     atom:    5    charge:    3.9710    magn:    0.3916    constr:    0.0000
     atom:    6    charge:    3.9691    magn:    0.3971    constr:    0.0000
     atom:    7    charge:    3.9552    magn:    0.2210    constr:    0.0000
     atom:    8    charge:    3.7012    magn:    0.0256    constr:    0.0000
     atom:    9    charge:    3.9710    magn:    0.3916    constr:    0.0000
     atom:   10    charge:    3.9691    magn:    0.3971    constr:    0.0000
     atom:   11    charge:    3.9548    magn:    0.2208    constr:    0.0000
     atom:   12    charge:    3.7018    magn:    0.0257    constr:    0.0000
     atom:   13    charge:    3.9710    magn:    0.3916    constr:    0.0000
     atom:   14    charge:    3.9691    magn:    0.3970    constr:    0.0000
     atom:   15    charge:    3.9549    magn:    0.2208    constr:    0.0000
     atom:   16    charge:    3.7003    magn:    0.0257    constr:    0.0000
     atom:   17    charge:    3.9710    magn:    0.3916    constr:    0.0000
     atom:   18    charge:    3.9690    magn:    0.3970    constr:    0.0000
     atom:   19    charge:    3.9552    magn:    0.2209    constr:    0.0000
     atom:   20    charge:    3.6990    magn:    0.0256    constr:    0.0000
     atom:   21    charge:    3.9710    magn:    0.3916    constr:    0.0000
     atom:   22    charge:    3.9691    magn:    0.3971    constr:    0.0000
     atom:   23    charge:    3.9548    magn:    0.2208    constr:    0.0000
     atom:   24    charge:    3.6998    magn:    0.0257    constr:    0.0000
     atom:   25    charge:    3.9710    magn:    0.3916    constr:    0.0000
     atom:   26    charge:    3.9690    magn:    0.3970    constr:    0.0000
     atom:   27    charge:    3.9549    magn:    0.2208    constr:    0.0000
     atom:   28    charge:    3.7024    magn:    0.0258    constr:    0.0000
     atom:   29    charge:    3.9710    magn:    0.3916    constr:    0.0000
     atom:   30    charge:    3.9691    magn:    0.3970    constr:    0.0000
     atom:   31    charge:    3.9552    magn:    0.2209    constr:    0.0000
     atom:   32    charge:    3.7003    magn:    0.0257    constr:    0.0000
     atom:   33    charge:    3.9710    magn:    0.3916    constr:    0.0000
     atom:   34    charge:    3.9691    magn:    0.3971    constr:    0.0000
     atom:   35    charge:    3.9548    magn:    0.2207    constr:    0.0000
     atom:   36    charge:    3.7012    magn:    0.0258    constr:    0.0000
     atom:   37    charge:    0.5801    magn:    0.0646    constr:    0.0000
     atom:   38    charge:    0.5805    magn:    0.0647    constr:    0.0000
     atom:   39    charge:    0.5801    magn:    0.0646    constr:    0.0000
     atom:   40    charge:    0.5803    magn:    0.0647    constr:    0.0000
     atom:   41    charge:    0.5798    magn:    0.0646    constr:    0.0000
     atom:   42    charge:    0.5799    magn:    0.0646    constr:    0.0000
     atom:   43    charge:    0.5796    magn:    0.0645    constr:    0.0000
     atom:   44    charge:    0.5800    magn:    0.0646    constr:    0.0000
     atom:   45    charge:    0.5797    magn:    0.0646    constr:    0.0000

     End of self-consistent calculation

 ------ SPIN UP ------------

[...]

 ------ SPIN DOWN ----------

[...]

          k = 0.0442-0.0255 0.0000 ( 34862 PWs)   bands (ev):

   -10.7709  -9.9276  -9.1648  -9.1644  -7.9573  -7.9565  -7.6063  -7.2130
    -7.2119  -5.2025  -4.0862  -3.7801  -3.7410  -3.3011  -3.2998  -3.1996
    -3.1976  -3.1357  -3.1349  -2.9094  -2.7368  -2.5586  -2.5585  -2.2345
    -2.0498  -2.0489  -1.7032  -1.7016  -1.6947  -1.5289  -1.5239  -1.5227
    -1.4648  -1.3494  -1.3468  -1.2872  -1.1765  -1.1727  -1.1398  -1.0600
    -0.9654  -0.9557  -0.9494  -0.9279  -0.9251  -0.8706  -0.8658  -0.8173
    -0.8124  -0.8028  -0.7946  -0.7379  -0.6416  -0.6213  -0.6098  -0.6088
    -0.5152  -0.4772  -0.4713  -0.4650  -0.4465  -0.4357  -0.3971  -0.3882
    -0.3052  -0.2800  -0.2689  -0.1526  -0.1388  -0.1275  -0.0883  -0.0865
    -0.0821  -0.0766  -0.0757   0.0265   0.0302   0.1974   0.1990   0.3050
     0.3102   0.3275   0.3430   0.3449   0.3471   0.3529   0.3543   0.4861
     0.4909   0.5127   0.5274   0.5364   0.5520   0.6009   0.6097   0.6594
     0.7152   0.7330   0.7338   0.7341   0.7807   0.7938   0.8882   0.9002
     0.9114   0.9167   0.9693   0.9694   0.9767   1.0290   1.0372   1.0483
     1.0718   1.0788   1.1320   1.1439   1.1458   1.1580   1.1711   1.2567
     1.2688   1.2697   1.2755   1.2790   1.2989   1.3065   1.3151   1.3229
     1.3609   1.3788   1.3898   1.3963   1.4206   1.4211   1.4687   1.4741
     1.5501   1.5798   1.5979   1.6042   1.6058   1.6340   1.6396   1.7168
     1.7176   1.7183   1.7313   1.7386   1.7473   1.8993   1.9629   1.9649
     1.9677   1.9740   1.9832   2.0206   2.0255   2.0664   2.0757   2.1071
     2.1508   2.1705   2.1848   2.1848   2.2165   2.2178   2.2272   2.2283
     2.2597   2.2941   2.3004   2.3977   2.4044   2.4480   2.4495   2.4573
     2.4608   2.5289   2.5306   2.5736   2.5757   2.5990   2.6012   2.6020
     2.6728   2.6797   2.6802   2.6817   2.6851   2.6925   2.7448   2.7494
     2.8032   2.8134   2.8387   2.8422   2.8432   2.8976   2.8993   2.9009
     2.9080   2.9242   2.9298   3.0632   3.0799   3.2035   3.2191   3.2207
     3.2593   3.2610   3.5644   3.5730   3.6523   3.7071   3.7085   3.9203
     4.0901   4.1854   4.1873   4.2987   4.4060   4.4114   4.8420   4.8431
     5.3422   5.3484   5.4084   5.4132   5.4165   5.7807   5.7809   5.9718
     6.2320   6.2927   6.3137   6.3563   6.3855   6.3857   6.4400   6.4439
     7.3095   7.3200   7.3486   7.3657   7.6637   7.7899   7.8305   7.8522
     8.4533   8.7668   8.8625   8.9473   9.0030   9.0263   9.0581   9.2865
     9.4320   9.8415   9.8428   9.9901   9.9996  10.0118  10.0921  10.1228
    10.2146  10.4670  10.7281  11.0611  11.0626  11.1577  11.2029  11.2037
    11.2058  11.2217  11.2792  11.4007  11.6496  11.6958  11.7253  11.9117
    12.3108  12.3204  12.5032  12.5225  12.5392  12.5435  12.5678  12.9810
    13.0262  13.1232  13.1635  13.1888  13.3480  13.3704  13.4831  13.5590
    13.5627  13.6374

     the Fermi energy is     2.7066 ev

!    total energy              =   -3728.66153760 Ry
     Harris-Foulkes estimate   =   -3728.66154564 Ry
     estimated scf accuracy    <       0.00000050 Ry

     The total energy is the sum of the following terms:

     one-electron contribution =  -25333.55519350 Ry
     hartree contribution      =   13083.46395068 Ry
     xc contribution           =   -1541.64870499 Ry
     ewald contribution        =   10063.22357788 Ry
     electric field correction =       0.00065923 Ry
     smearing contrib. (-TS)   =      -0.14582690 Ry

     total magnetization       =    19.29 Bohr mag/cell
     absolute magnetization    =    21.84 Bohr mag/cell

     convergence has been achieved in  19 iterations

     Forces acting on atoms (Ry/au):

     negative rho (up, down):  2.162E-04 2.048E-04
     atom    1 type  1   force =     0.00005348    0.00008868    0.00426202
     atom    2 type  1   force =     0.00029396    0.00146465   -0.00454154
     atom    3 type  1   force =    -0.00008968   -0.00092517    0.00054159
     atom    4 type  1   force =     0.00047288    0.00103149   -0.00017519
     atom    5 type  1   force =     0.00004364    0.00001157    0.00423805
     atom    6 type  1   force =     0.00035109    0.00139415   -0.00454709
     atom    7 type  1   force =    -0.00013295   -0.00075812    0.00065120
     atom    8 type  1   force =    -0.00015523   -0.00058855    0.00033392
     atom    9 type  1   force =     0.00000989    0.00005401    0.00422762
     atom   10 type  1   force =     0.00029270    0.00147871   -0.00448948
     atom   11 type  1   force =    -0.00012619   -0.00091392    0.00053242
     atom   12 type  1   force =     0.00069714   -0.00036157   -0.00027025
     atom   13 type  1   force =    -0.00002196    0.00009590    0.00425522
     atom   14 type  1   force =     0.00025880    0.00146968   -0.00452635
     atom   15 type  1   force =    -0.00013563   -0.00090097    0.00051702
     atom   16 type  1   force =     0.00006247    0.00052811   -0.00050086
     atom   17 type  1   force =     0.00002513   -0.00001002    0.00426354
     atom   18 type  1   force =     0.00027974    0.00139057   -0.00453188
     atom   19 type  1   force =    -0.00009372   -0.00077873    0.00053309
     atom   20 type  1   force =    -0.00014866   -0.00119533   -0.00029881
     atom   21 type  1   force =     0.00001626    0.00001953    0.00422834
     atom   22 type  1   force =     0.00030735    0.00141943   -0.00447456
     atom   23 type  1   force =    -0.00013271   -0.00091882    0.00052930
     atom   24 type  1   force =    -0.00076913   -0.00032948   -0.00074811
     atom   25 type  1   force =     0.00002623    0.00007888    0.00424110
     atom   26 type  1   force =     0.00035615    0.00144271   -0.00454303
     atom   27 type  1   force =    -0.00013431   -0.00090369    0.00058634
     atom   28 type  1   force =     0.00029778    0.00170042   -0.00066873
     atom   29 type  1   force =    -0.00001022    0.00002337    0.00424324
     atom   30 type  1   force =     0.00027799    0.00141615   -0.00454670
     atom   31 type  1   force =    -0.00013557   -0.00076160    0.00058533
     atom   32 type  1   force =     0.00109742   -0.00079137   -0.00032354
     atom   33 type  1   force =     0.00003073    0.00001692    0.00423956
     atom   34 type  1   force =     0.00030831    0.00147858   -0.00449010
     atom   35 type  1   force =    -0.00009745   -0.00093841    0.00051213
     atom   36 type  1   force =     0.00086298   -0.00008674   -0.00107375
     atom   37 type  2   force =    -0.00062688   -0.00099326    0.00014768
     atom   38 type  2   force =    -0.00047974   -0.00073957    0.00122324
     atom   39 type  2   force =    -0.00029456   -0.00066271    0.00047987
     atom   40 type  2   force =    -0.00045927   -0.00076756    0.00066236
     atom   41 type  2   force =    -0.00016619   -0.00080598   -0.00033523
     atom   42 type  2   force =    -0.00028773   -0.00021093   -0.00015756
     atom   43 type  2   force =    -0.00038805   -0.00001756   -0.00045457
     atom   44 type  2   force =    -0.00077960   -0.00091478    0.00008652
     atom   45 type  2   force =    -0.00075667   -0.00032869   -0.00042339

     Total force =     0.019943     Total SCF correction =     0.002617
     SCF correction compared to forces is large: reduce conv_thr to get better values
 !ASE

     Writing output data file calc.save

     General routines

     Parallel routines

   This run was terminated on:  23:54:47  18Mar2017

   JOB DONE.