     Program PWSCF v.5.1rc2 (svn rev. ) starts on 20Apr2018 at 13:26: 2

     Current dimensions of program PWSCF are:
     Max number of different atomic species (ntypx) = 10
     Max number of k-points (npk) =  40000
     Max angular momentum in pseudopotentials (lmaxx) =  3
     Presently no symmetry can be used with electric field

     IMPORTANT: XC functional enforced from input :
     Exchange-correlation      = RPBE ( 1  4 28  4 0)
     Any further DFT definition will be discarded
     Please, verify this is what you really want

     Subspace diagonalization in iterative solution of the eigenvalue problem:
     a serial algorithm will be used

     Generating pointlists ...
     new r_m :   0.4125 (alat units)  0.7795 (a.u.) for type    1
     new r_m :   0.4125 (alat units)  0.7795 (a.u.) for type    2

     bravais-lattice index     =            0
     lattice parameter (alat)  =       1.8897  a.u.
     unit-cell volume          =   12682.1321 (a.u.)^3
     number of atoms/cell      =           37
     number of atomic types    =            2
     number of electrons       =       328.00
     number of Kohn-Sham states=          264
     kinetic-energy cutoff     =      44.0992  Ry
     charge density cutoff     =     440.9919  Ry
     convergence threshold     =      7.3E-07
     mixing beta               =       0.1000
     number of iterations used =           10  plain     mixing
     Exchange-correlation      = RPBE ( 1  4 28  4 0)
     nstep                     =           50

     celldm(1)=   1.889726  celldm(2)=   0.000000  celldm(3)=   0.000000
     celldm(4)=   0.000000  celldm(5)=   0.000000  celldm(6)=   0.000000

     crystal axes: (cart. coord. in units of alat)
               a(1) = (   6.191574   0.000000   0.000000 )
               a(2) = (   0.000000   7.583099   0.000000 )
               a(3) = (   0.000000   0.000000  40.026524 )

     reciprocal axes: (cart. coord. in units 2 pi/alat)
               b(1) = (  0.161510  0.000000  0.000000 )
               b(2) = (  0.000000  0.131872  0.000000 )
               b(3) = (  0.000000  0.000000  0.024983 )

     PseudoPot. # 1 for Co read from file:
     /home/alatimer/bin/psp/esp_psp_w_gbrvRu/Co.UPF
     MD5 check sum: f36dda9fe147c5f42efc2a4f7ec0da3d
     Pseudo is Ultrasoft + core correction, Zval =  9.0
     Generated by new atomic code, or converted to UPF format
     Using radial grid of  937 points,  3 beta functions with:
                l(1) =   1
                l(2) =   2
                l(3) =   2
     Q(r) pseudized with  8 coefficients,  rinner =    1.000   1.000   1.000
                                                       1.000   1.000

     PseudoPot. # 2 for  C read from file:
     /home/alatimer/bin/psp/esp_psp_w_gbrvRu/C.UPF
     MD5 check sum: ab446d787031eba755f1d5ee46644bb0
     Pseudo is Ultrasoft + core correction, Zval =  4.0
     Generated using "atomic" code by A. Dal Corso  v.5.0.2 svn rev. 9415
     Using radial grid of 1073 points,  4 beta functions with:
                l(1) =   0
                l(2) =   0
                l(3) =   1
                l(4) =   1
     Q(r) pseudized with 0 coefficients

     atomic species   valence    mass     pseudopotential
        Co1            9.00    58.93320     Co( 1.00)
        C1             4.00    12.01100      C( 1.00)

     Starting magnetic structure
     atomic species   magnetization
        Co1          0.444
        C1           1.000

     No symmetry found

   Cartesian axes

     site n.     atom                  positions (alat units)
         1           Co1 tau(   1) = (   4.1277161   1.2638498  24.0265242  )
         2           Co1 tau(   2) = (   4.1277161   3.7915494  24.0265242  )
         3           Co1 tau(   3) = (   4.1277161   6.3192490  24.0265242  )
         4           Co1 tau(   4) = (   2.0638581   0.0000000  23.2968402  )
         5           Co1 tau(   5) = (   2.0638581   2.5276996  23.2968402  )
         6           Co1 tau(   6) = (   2.0638581   5.0553992  23.2968402  )
         7           Co1 tau(   7) = (   0.0000000   1.2638498  22.5671562  )
         8           Co1 tau(   8) = (   0.0000000   3.7915494  22.5671562  )
         9           Co1 tau(   9) = (   0.0000000   6.3192490  22.5671562  )
        10           Co1 tau(  10) = (   4.1277161   0.0000000  21.8374721  )
        11           Co1 tau(  11) = (   4.1277161   2.5276996  21.8374721  )
        12           Co1 tau(  12) = (   4.1277161   5.0553992  21.8374721  )
        13           Co1 tau(  13) = (   2.0638581   1.2638498  21.1077881  )
        14           Co1 tau(  14) = (   2.0638581   3.7915494  21.1077881  )
        15           Co1 tau(  15) = (   2.0638581   6.3192490  21.1077881  )
        16           Co1 tau(  16) = (   0.0000000   0.0000000  20.3781041  )
        17           Co1 tau(  17) = (   0.0000000   2.5276996  20.3781041  )
        18           Co1 tau(  18) = (   0.0000000   5.0553992  20.3781041  )
        19           Co1 tau(  19) = (   4.1277161   1.2638498  19.6484201  )
        20           Co1 tau(  20) = (   4.1277161   3.7915494  19.6484201  )
        21           Co1 tau(  21) = (   4.1277161   6.3192490  19.6484201  )
        22           Co1 tau(  22) = (   2.0638581   0.0000000  18.9187361  )
        23           Co1 tau(  23) = (   2.0638581   2.5276996  18.9187361  )
        24           Co1 tau(  24) = (   2.0638581   5.0553992  18.9187361  )
        25           Co1 tau(  25) = (   0.0000000   1.2638498  18.1890521  )
        26           Co1 tau(  26) = (   0.0000000   3.7915494  18.1890521  )
        27           Co1 tau(  27) = (   0.0000000   6.3192490  18.1890521  )
        28           Co1 tau(  28) = (   4.1277161   0.0000000  17.4593680  )
        29           Co1 tau(  29) = (   4.1277161   2.5276996  17.4593680  )
        30           Co1 tau(  30) = (   4.1277161   5.0553992  17.4593680  )
        31           Co1 tau(  31) = (   2.0638581   1.2638498  16.7296840  )
        32           Co1 tau(  32) = (   2.0638581   3.7915494  16.7296840  )
        33           Co1 tau(  33) = (   2.0638581   6.3192490  16.7296840  )
        34           Co1 tau(  34) = (   0.0000000   0.0000000  16.0000000  )
        35           Co1 tau(  35) = (   0.0000000   2.5276996  16.0000000  )
        36           Co1 tau(  36) = (   0.0000000   5.0553992  16.0000000  )
        37           C1  tau(  37) = (   2.0638581   1.2638498  24.8968402  )

     number of k points=    10  Fermi-Dirac smearing, width (Ry)=  0.0073
                       cart. coord. in units 2pi/alat
        k(    1) = (   0.0000000   0.0000000   0.0000000), wk =   0.1111111
        k(    2) = (   0.0000000   0.0439574   0.0000000), wk =   0.2222222
        k(    3) = (   0.0538366   0.0000000   0.0000000), wk =   0.2222222
        k(    4) = (   0.0538366   0.0439574   0.0000000), wk =   0.2222222
        k(    5) = (   0.0538366  -0.0439574   0.0000000), wk =   0.2222222
        k(    6) = (   0.0000000   0.0000000   0.0000000), wk =   0.1111111
        k(    7) = (   0.0000000   0.0439574   0.0000000), wk =   0.2222222
        k(    8) = (   0.0538366   0.0000000   0.0000000), wk =   0.2222222
        k(    9) = (   0.0538366   0.0439574   0.0000000), wk =   0.2222222
        k(   10) = (   0.0538366  -0.0439574   0.0000000), wk =   0.2222222

     Largest allocated arrays     est. size (Mb)     dimensions
     Largest temporary arrays     est. size (Mb)     dimensions

     Initial potential from superposition of free atoms
     Check: negative starting charge=(component1):   -0.004264
     Check: negative starting charge=(component2):   -0.001664

     starting charge  327.99028, renormalised to  328.00000

     negative rho (up, down):  4.265E-03 1.664E-03

     Adding external electric field

     Computed dipole along edir(3) :
        Dipole               -0.0007 Ry au,         -0.0018 Debye
        Dipole field         -0.0000 Ry au

        Potential amp.        0.0001 Ry
        Total length         73.7482 bohr

[...]

     Starting wfc are  328 randomized atomic wfcs

     Self-consistent Calculation

     iteration #  1     ecut=    44.10 Ry     beta=0.10
     Davidson diagonalization with overlap
     ethr =  1.00E-02,  avg # of iterations =  7.5

[...]

     Magnetic moment per site:
     atom:    1    charge:    3.1792    magn:    1.4191    constr:    0.0000
     atom:    2    charge:    3.1730    magn:    1.4256    constr:    0.0000
     atom:    3    charge:    3.1730    magn:    1.4256    constr:    0.0000
     atom:    4    charge:    3.2146    magn:    1.3825    constr:    0.0000
     atom:    5    charge:    3.2146    magn:    1.3825    constr:    0.0000
     atom:    6    charge:    3.2021    magn:    1.3977    constr:    0.0000
     atom:    7    charge:    3.2138    magn:    1.3846    constr:    0.0000
     atom:    8    charge:    3.2157    magn:    1.3830    constr:    0.0000
     atom:    9    charge:    3.2157    magn:    1.3830    constr:    0.0000
     atom:   10    charge:    3.2295    magn:    1.3695    constr:    0.0000
     atom:   11    charge:    3.2296    magn:    1.3695    constr:    0.0000
     atom:   12    charge:    3.2293    magn:    1.3692    constr:    0.0000
     atom:   13    charge:    3.2295    magn:    1.3705    constr:    0.0000
     atom:   14    charge:    3.2291    magn:    1.3700    constr:    0.0000
     atom:   15    charge:    3.2291    magn:    1.3700    constr:    0.0000
     atom:   16    charge:    3.2294    magn:    1.3699    constr:    0.0000
     atom:   17    charge:    3.2294    magn:    1.3699    constr:    0.0000
     atom:   18    charge:    3.2300    magn:    1.3697    constr:    0.0000
     atom:   19    charge:    3.2292    magn:    1.3695    constr:    0.0000
     atom:   20    charge:    3.2292    magn:    1.3696    constr:    0.0000
     atom:   21    charge:    3.2292    magn:    1.3696    constr:    0.0000
     atom:   22    charge:    3.2299    magn:    1.3702    constr:    0.0000
     atom:   23    charge:    3.2299    magn:    1.3702    constr:    0.0000
     atom:   24    charge:    3.2295    magn:    1.3696    constr:    0.0000
     atom:   25    charge:    3.2296    magn:    1.3693    constr:    0.0000
     atom:   26    charge:    3.2295    magn:    1.3692    constr:    0.0000
     atom:   27    charge:    3.2295    magn:    1.3692    constr:    0.0000
     atom:   28    charge:    3.2151    magn:    1.3826    constr:    0.0000
     atom:   29    charge:    3.2151    magn:    1.3826    constr:    0.0000
     atom:   30    charge:    3.2148    magn:    1.3827    constr:    0.0000
     atom:   31    charge:    3.2021    magn:    1.3965    constr:    0.0000
     atom:   32    charge:    3.2019    magn:    1.3966    constr:    0.0000
     atom:   33    charge:    3.2019    magn:    1.3966    constr:    0.0000
     atom:   34    charge:    3.1737    magn:    1.4243    constr:    0.0000
     atom:   35    charge:    3.1737    magn:    1.4243    constr:    0.0000
     atom:   36    charge:    3.1736    magn:    1.4244    constr:    0.0000
     atom:   37    charge:    0.5649    magn:    0.5348    constr:    0.0000

[...]
    -3.8762  -3.8705  -3.8249  -3.8158  -3.7833  -3.7791  -3.7767  -3.7512
    -3.7418  -3.7066  -3.6651  -3.6510  -3.6357  -3.6041  -3.5995  -3.5738
    -3.5635  -3.5325  -3.5187  -3.5135  -3.4710  -3.4490  -3.4263  -3.3827
    -3.3721  -3.3627  -3.3574  -3.3287  -3.3233  -3.3153  -3.3027  -3.2906
    -3.2683  -3.2553  -3.2405  -3.2185  -3.1898  -3.1491  -3.1474  -3.1341
    -3.1334  -3.1233  -3.1172  -3.0716  -3.0660  -3.0659  -3.0589  -3.0550
    -3.0462  -3.0012  -2.9948  -2.9606  -2.9417  -2.9161  -2.9025  -2.8604
    -2.8487  -2.8384  -2.8283  -2.8271  -2.7952  -2.7883  -2.7578  -2.7568
    -2.7118  -2.6862  -2.6649  -2.6459  -2.6408  -2.5828  -2.5806  -2.5439
    -2.5384  -2.5260  -2.5125  -2.4862  -2.4190  -2.4058  -2.3813  -2.3545
    -2.3479  -2.2994  -2.2935  -2.2810  -2.2585  -2.2485  -2.2358  -2.2242
    -2.2123  -2.1996  -2.1880  -2.1862  -2.1467  -2.1302  -2.1287  -2.1120
    -2.0987  -2.0597  -2.0437  -2.0416  -2.0260  -2.0246  -2.0098  -1.9897
    -1.9821  -1.9714  -1.9368  -1.9241  -1.9020  -1.8947  -1.8465  -1.8130
    -1.8063  -1.7830  -1.7818  -1.7706  -1.7583  -1.7369  -1.7223  -1.7115
    -1.7022  -1.6993  -1.6900  -1.6812  -1.6540  -1.6347  -1.6114  -1.5999
    -1.5916  -1.5818  -1.5788  -1.5637  -1.4759  -1.3899  -1.3543  -1.0793
    -1.0723  -0.8893  -0.8032  -0.1817  -0.0071   0.1136   0.1903   0.3710
     0.4244   0.4538   0.4689   0.5981   0.7082   1.0879   1.0991   1.2077
     1.2935   1.4403   1.4653   1.7196   2.0439   2.2740   2.4839   2.6611
     2.7425   2.8035   3.1549   3.2565   3.3759   3.5581   3.6776   3.7283
     3.9453   4.0046   4.2398   4.5913   4.6406   4.7216   4.7732   4.8921
     4.9827   5.1532   5.2050   5.6568   5.7117   5.8350   5.8786   6.0056
     6.0775   6.1327   6.2255   6.2295   6.2559   6.2734   6.3302   6.5221
     6.5437   6.6457   6.7015   6.7461   6.7664   6.9377   6.9954   7.1943
     7.2144   7.2733   7.2952   7.3174   7.3830   7.4325   7.4480   7.4634

[...]

 ------ SPIN DOWN ----------

[...]

     the Fermi energy is    -0.6475 ev

!    total energy              =   -2896.95540958 Ry
     Harris-Foulkes estimate   =   -2896.95540324 Ry
     estimated scf accuracy    <       0.00000058 Ry

     The total energy is the sum of the following terms:

     one-electron contribution =  -61480.23182325 Ry
     hartree contribution      =   31038.05675313 Ry
     xc contribution           =   -1331.00776783 Ry
     ewald contribution        =   28876.34014639 Ry
     electric field correction =       0.00005327 Ry
     smearing contrib. (-TS)   =      -0.11277129 Ry

[...]

     convergence has been achieved in  55 iterations

     Forces acting on atoms (Ry/au):

     negative rho (up, down):  5.810E-03 1.909E-02
     atom    1 type  1   force =    -0.04701596   -0.00000500    0.00273868
     atom    2 type  1   force =    -0.00070023    0.00430927   -0.02874119
     atom    3 type  1   force =    -0.00070053   -0.00430513   -0.02874030
     atom    4 type  1   force =     0.00101570    0.02924787    0.06008629
     atom    5 type  1   force =     0.00101523   -0.02925231    0.06008726
     atom    6 type  1   force =     0.00883959    0.00000532   -0.01646832
     atom    7 type  1   force =    -0.00529989   -0.00000511    0.00695509
     atom    8 type  1   force =    -0.00151056    0.00037886    0.00695831
     atom    9 type  1   force =    -0.00151039   -0.00037387    0.00695965
     atom   10 type  1   force =    -0.00145352   -0.00131559    0.01634865
     atom   11 type  1   force =    -0.00145312    0.00130969    0.01634694
     atom   12 type  1   force =    -0.00246641    0.00000509    0.01570545
     atom   13 type  1   force =     0.00153140   -0.00000429    0.00721683
     atom   14 type  1   force =     0.00176161    0.00387256    0.00175059
     atom   15 type  1   force =     0.00176176   -0.00386825    0.00175272
     atom   16 type  1   force =     0.00203092   -0.00021401    0.00328225
     atom   17 type  1   force =     0.00203078    0.00021108    0.00327970
     atom   18 type  1   force =     0.00115954    0.00000293    0.00423205
     atom   19 type  1   force =    -0.00167602   -0.00000218   -0.00403698
     atom   20 type  1   force =    -0.00201294    0.00004956   -0.00273150
     atom   21 type  1   force =    -0.00201371   -0.00004749   -0.00272883
     atom   22 type  1   force =    -0.00160950   -0.00090908   -0.00890546
     atom   23 type  1   force =    -0.00160942    0.00090785   -0.00890755
     atom   24 type  1   force =    -0.00199209    0.00000137   -0.00516685
     atom   25 type  1   force =     0.00326021   -0.00000008   -0.01755354
     atom   26 type  1   force =     0.00334503    0.00040900   -0.01743221
     atom   27 type  1   force =     0.00334542   -0.00040878   -0.01743068
     atom   28 type  1   force =     0.00124878   -0.00010284   -0.01039218
     atom   29 type  1   force =     0.00124919    0.00010286   -0.01039401
     atom   30 type  1   force =     0.00169365   -0.00000030   -0.01044106
     atom   31 type  1   force =    -0.00740287    0.00000031    0.01301652
     atom   32 type  1   force =    -0.00772037   -0.00034911    0.01223491
     atom   33 type  1   force =    -0.00772027    0.00034938    0.01223783
     atom   34 type  1   force =     0.00370376   -0.00033266    0.02699976
     atom   35 type  1   force =     0.00370383    0.00033385    0.02699952
     atom   36 type  1   force =     0.00331786   -0.00000085    0.02641695
     atom   37 type  2   force =     0.04985352    0.00000009   -0.14153527

     Total force =     0.202939     Total SCF correction =     0.002271
 !ASE

     Writing output data file calc.save
     Check: negative starting charge=(component1):   -0.005920
     NEW-OLD atomic charge density approx. for the potential
     Check: negative starting charge=(component1):   -0.006447

[...]

     iteration #  1     ecut=    44.10 Ry     beta=0.10
     Davidson diagonalization with overlap
     c_bands:  1 eigenvalues not converged
     c_bands:  1 eigenvalues not converged
     c_bands:  1 eigenvalues not converged
     c_bands:  1 eigenvalues not converged
     ethr =  3.09E-10,  avg # of iterations = 17.5

[...]

     Writing output data file calc.save
     Check: negative starting charge=(component1):   -0.006548
     NEW-OLD atomic charge density approx. for the potential
     Check: negative starting charge=(component1):   -0.006533

[...]

     Self-consistent Calculation

     iteration #  1     ecut=    44.10 Ry     beta=0.10
     Davidson diagonalization with overlap
     c_bands:  1 eigenvalues not converged
     c_bands:  1 eigenvalues not converged
     ethr =  4.04E-10,  avg # of iterations = 12.3

[...]

     total energy              =   -2897.04827698 Ry
     Harris-Foulkes estimate   =   -2897.04826096 Ry
     estimated scf accuracy    <       0.00000174 Ry

[...]

     iteration # 18     ecut=    44.10 Ry     beta=0.10
     Davidson diagonalization with overlap
     ethr =  4.58E-10,  avg # of iterations =  1.0

     negative rho (up, down):  6.653E-03 2.001E-02

[...]

     Adding external electric field

     Computed dipole along edir(3) :
        Dipole               -0.1467 Ry au,         -0.3730 Debye
        Dipole field         -0.0001 Ry au

        Potential amp.        0.0214 Ry
        Total length         73.7482 bohr

     Magnetic moment per site:
     atom:    1    charge:    3.1440    magn:    0.7100    constr:    0.0000
     atom:    2    charge:    3.0455    magn:    0.9666    constr:    0.0000
     atom:    3    charge:    3.0450    magn:    0.9664    constr:    0.0000
     atom:    4    charge:    3.1430    magn:    0.6481    constr:    0.0000
     atom:    5    charge:    3.1432    magn:    0.6479    constr:    0.0000
     atom:    6    charge:    3.1094    magn:    0.9385    constr:    0.0000
     atom:    7    charge:    3.1810    magn:    0.9728    constr:    0.0000
     atom:    8    charge:    3.1968    magn:    0.9642    constr:    0.0000
     atom:    9    charge:    3.1968    magn:    0.9642    constr:    0.0000
     atom:   10    charge:    3.1915    magn:    0.9535    constr:    0.0000
     atom:   11    charge:    3.1915    magn:    0.9535    constr:    0.0000
     atom:   12    charge:    3.1891    magn:    0.9428    constr:    0.0000
     atom:   13    charge:    3.1896    magn:    0.9654    constr:    0.0000
     atom:   14    charge:    3.1944    magn:    0.9430    constr:    0.0000
     atom:   15    charge:    3.1944    magn:    0.9430    constr:    0.0000
     atom:   16    charge:    3.1915    magn:    0.9488    constr:    0.0000
     atom:   17    charge:    3.1916    magn:    0.9488    constr:    0.0000
     atom:   18    charge:    3.1946    magn:    0.9462    constr:    0.0000
     atom:   19    charge:    3.1993    magn:    0.9546    constr:    0.0000
     atom:   20    charge:    3.1987    magn:    0.9458    constr:    0.0000
     atom:   21    charge:    3.1987    magn:    0.9458    constr:    0.0000
     atom:   22    charge:    3.1998    magn:    0.9554    constr:    0.0000
     atom:   23    charge:    3.1998    magn:    0.9554    constr:    0.0000
     atom:   24    charge:    3.1993    magn:    0.9515    constr:    0.0000
     atom:   25    charge:    3.1993    magn:    0.9539    constr:    0.0000
     atom:   26    charge:    3.1992    magn:    0.9566    constr:    0.0000
     atom:   27    charge:    3.1992    magn:    0.9566    constr:    0.0000
     atom:   28    charge:    3.2026    magn:    0.9761    constr:    0.0000
     atom:   29    charge:    3.2026    magn:    0.9761    constr:    0.0000
     atom:   30    charge:    3.2028    magn:    0.9765    constr:    0.0000
     atom:   31    charge:    3.2080    magn:    0.9916    constr:    0.0000
     atom:   32    charge:    3.2082    magn:    0.9934    constr:    0.0000
     atom:   33    charge:    3.2082    magn:    0.9934    constr:    0.0000
     atom:   34    charge:    3.2203    magn:    1.0037    constr:    0.0000
     atom:   35    charge:    3.2203    magn:    1.0037    constr:    0.0000
     atom:   36    charge:    3.2197    magn:    1.0038    constr:    0.0000
     atom:   37    charge:    0.4199    magn:   -0.0095    constr:    0.0000

     End of self-consistent calculation

 ------ SPIN UP ------------

[...]

 ------ SPIN DOWN ----------

[...]

          k = 0.0538-0.0440 0.0000 ( 62686 PWs)   bands (ev):

   -11.6003  -8.2691  -7.4330  -7.1259  -6.9424  -6.3809  -6.2174  -5.9823
    -5.5316  -5.3286  -5.0397  -4.9164  -4.7693  -4.6289  -4.5388  -4.4805
    -4.4314  -4.3663  -4.3233  -4.2389  -4.1279  -4.0775  -3.9808  -3.9428
    -3.8501  -3.8133  -3.7752  -3.6982  -3.6059  -3.5776  -3.5480  -3.5291
    -3.4703  -3.4553  -3.4129  -3.3655  -3.3195  -3.2689  -3.1943  -3.1258
    -3.1008  -3.0642  -3.0549  -3.0296  -3.0123  -2.9640  -2.9373  -2.8850
    -2.8633  -2.8158  -2.7999  -2.7578  -2.7251  -2.6926  -2.6633  -2.6331
    -2.6014  -2.5575  -2.4850  -2.4726  -2.4495  -2.4207  -2.3764  -2.3317
    -2.2967  -2.2647  -2.2376  -2.2188  -2.1968  -2.1832  -2.1425  -2.1284
    -2.0731  -2.0629  -2.0139  -1.9787  -1.9698  -1.9454  -1.9238  -1.8964
    -1.8606  -1.8537  -1.8069  -1.7836  -1.7627  -1.7480  -1.7301  -1.7104
    -1.6827  -1.6712  -1.6558  -1.6235  -1.5634  -1.5459  -1.5125  -1.4946
    -1.4787  -1.4504  -1.4375  -1.4085  -1.3988  -1.3884  -1.3573  -1.3415
    -1.3157  -1.3011  -1.2893  -1.2706  -1.2470  -1.2183  -1.1941  -1.1690
    -1.1504  -1.1481  -1.1162  -1.0791  -1.0565  -1.0173  -0.9865  -0.9719
    -0.9412  -0.9281  -0.9035  -0.8753  -0.8570  -0.8229  -0.7983  -0.7568
    -0.7345  -0.7160  -0.6919  -0.6688  -0.6193  -0.5906  -0.5589  -0.5252
    -0.5189  -0.4887  -0.4553  -0.4166  -0.4132  -0.3903  -0.3730  -0.3444
    -0.3238  -0.3088  -0.2891  -0.2835  -0.2528  -0.2412  -0.2333  -0.1927
    -0.1504  -0.1408  -0.1184  -0.1095  -0.0827  -0.0624  -0.0371  -0.0290
    -0.0121   0.0138   0.0310   0.0570   0.0715   0.1085   0.1211   0.1340
     0.1574   0.1708   0.1998   0.2316   0.2359   0.2630   0.3063   0.3269
     0.3376   0.3439   0.3582   0.3710   0.3872   0.3929   0.4203   0.4424
     0.4495   0.4627   0.4788   0.4949   0.5042   0.5307   0.5439   0.5505
     0.5921   0.6736   0.8297   0.9052   1.0023   1.0982   1.1872   1.2403
     1.3113   1.4110   1.5811   1.7463   1.8507   1.9401   2.2544   2.3814
     2.6319   2.6750   2.8547   2.9909   3.1063   3.3271   3.4816   3.5669
     3.7341   3.8390   3.8916   4.1297   4.1993   4.3086   4.4143   4.5982
     4.7081   4.7257   4.7843   4.9504   5.0182   5.0737   5.0963   5.1890
     5.2510   5.3055   5.4251   5.4532   5.4948   5.5813   5.6202   5.6815
     5.7696   5.8704   5.9186   6.0595   6.1952   6.2063   6.2868   6.3400
     6.4319   6.4845   6.5347   6.5789   6.6198   6.7427   6.8328   6.8840
     6.9579   6.9871   7.0343   7.1263   7.1986   7.2249   7.2763   7.4137

     the Fermi energy is    -0.5875 ev

!    total energy              =   -2897.04838459 Ry
     Harris-Foulkes estimate   =   -2897.04827678 Ry
     estimated scf accuracy    <       0.00000034 Ry

     The total energy is the sum of the following terms:

     one-electron contribution =  -61720.96071059 Ry
     hartree contribution      =   31158.93413676 Ry
     xc contribution           =   -1331.35163443 Ry
     ewald contribution        =   28996.44230583 Ry
     electric field correction =       0.00002134 Ry
     smearing contrib. (-TS)   =      -0.11250349 Ry

     total magnetization       =    61.08 Bohr mag/cell
     absolute magnetization    =    67.43 Bohr mag/cell

     convergence has been achieved in  18 iterations

     Forces acting on atoms (Ry/au):

     negative rho (up, down):  6.653E-03 2.001E-02
     atom    1 type  1   force =     0.00087436   -0.00002949   -0.00097216
     atom    2 type  1   force =     0.00000385   -0.00010195   -0.00061619
     atom    3 type  1   force =     0.00001343    0.00011015   -0.00051968
     atom    4 type  1   force =     0.00026751   -0.00099980   -0.00042625
     atom    5 type  1   force =     0.00022885    0.00114677   -0.00054740
     atom    6 type  1   force =    -0.00111898   -0.00004997    0.00022566
     atom    7 type  1   force =     0.00101886   -0.00000777   -0.00128201
     atom    8 type  1   force =     0.00113545   -0.00088221   -0.00074074
     atom    9 type  1   force =     0.00112445    0.00088324   -0.00073298
     atom   10 type  1   force =     0.00059567    0.00012649   -0.00098283
     atom   11 type  1   force =     0.00057294   -0.00008249   -0.00091635
     atom   12 type  1   force =     0.00106291   -0.00003175   -0.00015581
     atom   13 type  1   force =     0.00051177    0.00000873   -0.00121850
     atom   14 type  1   force =    -0.00041319   -0.00008944   -0.00014220
     atom   15 type  1   force =    -0.00040177    0.00008470   -0.00017987
     atom   16 type  1   force =     0.00008040    0.00011927   -0.00080910
     atom   17 type  1   force =     0.00010901   -0.00010855   -0.00078608
     atom   18 type  1   force =    -0.00114609   -0.00000862   -0.00018401
     atom   19 type  1   force =    -0.00214069   -0.00001083   -0.00243617
     atom   20 type  1   force =     0.00065485   -0.00149572   -0.00561610
     atom   21 type  1   force =     0.00065483    0.00150694   -0.00561429
     atom   22 type  1   force =    -0.00181457    0.00150628   -0.00755612
     atom   23 type  1   force =    -0.00182101   -0.00150716   -0.00756011
     atom   24 type  1   force =    -0.00054872    0.00000130   -0.00678943
     atom   25 type  1   force =     0.00308099   -0.00000618   -0.01404889
     atom   26 type  1   force =     0.00345899   -0.00064813   -0.01499338
     atom   27 type  1   force =     0.00345681    0.00065761   -0.01499257
     atom   28 type  1   force =     0.00088094    0.00025863   -0.00932876
     atom   29 type  1   force =     0.00087879   -0.00026335   -0.00932731
     atom   30 type  1   force =     0.00184321    0.00000278   -0.01016521
     atom   31 type  1   force =    -0.00764424   -0.00000189    0.01318321
     atom   32 type  1   force =    -0.00775442   -0.00044827    0.01199798
     atom   33 type  1   force =    -0.00775772    0.00045052    0.01199461
     atom   34 type  1   force =     0.00346133   -0.00008388    0.02750349
     atom   35 type  1   force =     0.00345919    0.00008796    0.02750194
     atom   36 type  1   force =     0.00298867   -0.00000179    0.02681623
     atom   37 type  2   force =     0.00014335   -0.00009212    0.00041740

     Total force =     0.064367     Total SCF correction =     0.001604
 !ASE

     Writing output data file calc.save

     General routines

     Parallel routines

   This run was terminated on:  23:37:28  20Apr2018

   JOB DONE.