     Program PWSCF v.5.1rc2 (svn rev. ) starts on 23Apr2017 at 21: 6: 4

     Current dimensions of program PWSCF are:
     Max number of different atomic species (ntypx) = 10
     Max number of k-points (npk) =  40000
     Max angular momentum in pseudopotentials (lmaxx) =  3
     Presently no symmetry can be used with electric field

     IMPORTANT: XC functional enforced from input :
     Exchange-correlation      = RPBE ( 1  4 28  4 0)
     Any further DFT definition will be discarded
     Please, verify this is what you really want

               file Ni.UPF: wavefunction(s)  3D renormalized

     Subspace diagonalization in iterative solution of the eigenvalue problem:
     a serial algorithm will be used

     Generating pointlists ...
     new r_m :   0.4125 (alat units)  0.7795 (a.u.) for type    1
     new r_m :   0.4125 (alat units)  0.7795 (a.u.) for type    2

     bravais-lattice index     =            0
     lattice parameter (alat)  =       1.8897  a.u.
     unit-cell volume          =    7046.4111 (a.u.)^3
     number of atoms/cell      =           44
     number of atomic types    =            2
     number of electrons       =       408.00
     number of Kohn-Sham states=          304
     kinetic-energy cutoff     =      44.0992  Ry
     charge density cutoff     =     440.9919  Ry
     convergence threshold     =      7.3E-07
     mixing beta               =       0.1000
     number of iterations used =           10  plain     mixing
     Exchange-correlation      = RPBE ( 1  4 28  4 0)
     nstep                     =           50

     celldm(1)=   1.889726  celldm(2)=   0.000000  celldm(3)=   0.000000
     celldm(4)=   0.000000  celldm(5)=   0.000000  celldm(6)=   0.000000

     crystal axes: (cart. coord. in units of alat)
               a(1) = (   7.548011   0.000000   0.000000 )
               a(2) = (  -3.774005   6.536769   0.000000 )
               a(3) = (   0.000000   0.000000  21.162925 )

     reciprocal axes: (cart. coord. in units 2 pi/alat)
               b(1) = (  0.132485  0.076490  0.000000 )
               b(2) = (  0.000000  0.152981  0.000000 )
               b(3) = (  0.000000  0.000000  0.047252 )

     PseudoPot. # 1 for Ni read from file:
     /home/alatimer/bin/psp/esp_psp_w_gbrvRu/Ni.UPF
     MD5 check sum: 8b2449ee0060d9c33484ccd47bb60870
     Pseudo is Ultrasoft + core correction, Zval = 10.0
     Generated using "atomic" code by A. Dal Corso  v.5.0.2 svn rev. 9415
     Using radial grid of 1195 points,  6 beta functions with:
                l(1) =   0
                l(2) =   0
                l(3) =   1
                l(4) =   1
                l(5) =   2
                l(6) =   2
     Q(r) pseudized with 0 coefficients

     PseudoPot. # 2 for  O read from file:
     /home/alatimer/bin/psp/esp_psp_w_gbrvRu/O.UPF
     MD5 check sum: e057bbcf3229fb5d8c36c0c92f9568b4
     Pseudo is Ultrasoft + core correction, Zval =  6.0
     Generated using "atomic" code by A. Dal Corso  v.5.0.2 svn rev. 9415
     Using radial grid of 1095 points,  4 beta functions with:
                l(1) =   0
                l(2) =   0
                l(3) =   1
                l(4) =   1
     Q(r) pseudized with 0 coefficients

     atomic species   valence    mass     pseudopotential
        Ni1           10.00    58.69340     Ni( 1.00)
        O1             6.00    15.99940      O( 1.00)

     Starting magnetic structure
     atomic species   magnetization
        Ni1          0.300
        O1           0.500

     No symmetry found

   Cartesian axes

     site n.     atom                  positions (alat units)
         1           Ni1 tau(   1) = (   0.0000000   0.0000000   7.5000000  )
         2           Ni1 tau(   2) = (   1.2580018   0.7263077   9.5543084  )
         3           Ni1 tau(   3) = (   0.0000000   1.4526154  11.6086168  )
         4           Ni1 tau(   4) = (   1.2580018   2.1789231  13.6629252  )
         5           Ni1 tau(   5) = (  -1.2580018   2.1789231   7.5000000  )
         6           Ni1 tau(   6) = (   0.0000000   2.9052308   9.5543084  )
         7           Ni1 tau(   7) = (  -1.2580018   3.6315385  11.6086168  )
         8           Ni1 tau(   8) = (  -0.0000000   4.3578462  13.6629252  )
         9           Ni1 tau(   9) = (  -2.5160037   4.3578462   7.5000000  )
        10           Ni1 tau(  10) = (  -1.2580018   5.0841539   9.5543084  )
        11           Ni1 tau(  11) = (  -2.5160037   5.8104616  11.6086168  )
        12           Ni1 tau(  12) = (  -1.2580018   6.5367693  13.6629252  )
        13           Ni1 tau(  13) = (   2.5160037   0.0000000   7.5000000  )
        14           Ni1 tau(  14) = (   3.7740055   0.7263077   9.5543084  )
        15           Ni1 tau(  15) = (   2.5160037   1.4526154  11.6086168  )
        16           Ni1 tau(  16) = (   3.7740055   2.1789231  13.6629252  )
        17           Ni1 tau(  17) = (   1.2580018   2.1789231   7.5000000  )
        18           Ni1 tau(  18) = (   2.5160037   2.9052308   9.5543084  )
        19           Ni1 tau(  19) = (   1.2580018   3.6315385  11.6086168  )
        20           Ni1 tau(  20) = (   2.5160037   4.3578462  13.6629252  )
        21           Ni1 tau(  21) = (  -0.0000000   4.3578462   7.5000000  )
        22           Ni1 tau(  22) = (   1.2580018   5.0841539   9.5543084  )
        23           Ni1 tau(  23) = (  -0.0000000   5.8104616  11.6086168  )
        24           Ni1 tau(  24) = (   1.2580018   6.5367693  13.6629252  )
        25           Ni1 tau(  25) = (   5.0320073   0.0000000   7.5000000  )
        26           Ni1 tau(  26) = (   6.2900092   0.7263077   9.5543084  )
        27           Ni1 tau(  27) = (   5.0320073   1.4526154  11.6086168  )
        28           Ni1 tau(  28) = (   6.2900092   2.1789231  13.6629252  )
        29           Ni1 tau(  29) = (   3.7740055   2.1789231   7.5000000  )
        30           Ni1 tau(  30) = (   5.0320073   2.9052308   9.5543084  )
        31           Ni1 tau(  31) = (   3.7740055   3.6315385  11.6086168  )
        32           Ni1 tau(  32) = (   5.0320073   4.3578462  13.6629252  )
        33           Ni1 tau(  33) = (   2.5160037   4.3578462   7.5000000  )
        34           Ni1 tau(  34) = (   3.7740055   5.0841539   9.5543084  )
        35           Ni1 tau(  35) = (   2.5160037   5.8104616  11.6086168  )
        36           Ni1 tau(  36) = (   3.7740055   6.5367693  13.6629252  )
        37           O1  tau(  37) = (   2.4935804   5.8277866  14.8463543  )
        38           O1  tau(  38) = (   0.0203265   5.7554212  14.8463543  )
        39           O1  tau(  39) = (   2.5363302   1.3975750  14.8463543  )
        40           O1  tau(  40) = (   5.0523338   1.3975750  14.8463543  )
        41           O1  tau(  41) = (   0.0203265   1.3975750  14.8463543  )
        42           O1  tau(  42) = (  -2.4956772   5.7554212  14.8463543  )
        43           O1  tau(  43) = (   3.7943320   3.5764981  14.8463543  )
        44           O1  tau(  44) = (  -1.2376753   3.5764981  14.8463543  )

     number of k points=    10  Fermi-Dirac smearing, width (Ry)=  0.0073
                       cart. coord. in units 2pi/alat
        k(    1) = (   0.0000000   0.0000000   0.0000000), wk =   0.1111111
        k(    2) = (   0.0000000   0.0509936   0.0000000), wk =   0.2222222
        k(    3) = (   0.0441617   0.0254968   0.0000000), wk =   0.2222222
        k(    4) = (   0.0441617   0.0764904   0.0000000), wk =   0.2222222
        k(    5) = (   0.0441617  -0.0254968   0.0000000), wk =   0.2222222
        k(    6) = (   0.0000000   0.0000000   0.0000000), wk =   0.1111111
        k(    7) = (   0.0000000   0.0509936   0.0000000), wk =   0.2222222
        k(    8) = (   0.0441617   0.0254968   0.0000000), wk =   0.2222222
        k(    9) = (   0.0441617   0.0764904   0.0000000), wk =   0.2222222
        k(   10) = (   0.0441617  -0.0254968   0.0000000), wk =   0.2222222

     Largest allocated arrays     est. size (Mb)     dimensions
     Largest temporary arrays     est. size (Mb)     dimensions

     Check: negative/imaginary core charge=   -0.000010    0.000000

     Initial potential from superposition of free atoms
     Check: negative starting charge=(component1):   -0.000465
     Check: negative starting charge=(component2):   -0.000216

     starting charge  407.99095, renormalised to  408.00000

     negative rho (up, down):  4.652E-04 2.163E-04

     Adding external electric field

     Computed dipole along edir(3) :
        Dipole               -0.0085 Ry au,         -0.0216 Debye
        Dipole field         -0.0000 Ry au

        Potential amp.        0.0012 Ry
        Total length         38.9923 bohr

[...]

     Starting wfc are  356 randomized atomic wfcs

     Self-consistent Calculation

     iteration #  1     ecut=    44.10 Ry     beta=0.10
     Davidson diagonalization with overlap
     ethr =  1.00E-02,  avg # of iterations =  6.6

[...]

     Magnetic moment per site:
     atom:    1    charge:    3.9488    magn:    1.1263    constr:    0.0000
     atom:    2    charge:    3.9691    magn:    1.1099    constr:    0.0000
     atom:    3    charge:    3.9704    magn:    1.1093    constr:    0.0000
     atom:    4    charge:    3.9394    magn:    1.1455    constr:    0.0000
     atom:    5    charge:    3.9489    magn:    1.1261    constr:    0.0000
     atom:    6    charge:    3.9688    magn:    1.1102    constr:    0.0000
     atom:    7    charge:    3.9707    magn:    1.1090    constr:    0.0000
     atom:    8    charge:    3.9381    magn:    1.1471    constr:    0.0000
     atom:    9    charge:    3.9488    magn:    1.1263    constr:    0.0000
     atom:   10    charge:    3.9691    magn:    1.1099    constr:    0.0000
     atom:   11    charge:    3.9704    magn:    1.1087    constr:    0.0000
     atom:   12    charge:    3.9346    magn:    1.1552    constr:    0.0000
     atom:   13    charge:    3.9488    magn:    1.1263    constr:    0.0000
     atom:   14    charge:    3.9687    magn:    1.1107    constr:    0.0000
     atom:   15    charge:    3.9705    magn:    1.1092    constr:    0.0000
     atom:   16    charge:    3.9361    magn:    1.1546    constr:    0.0000
     atom:   17    charge:    3.9488    magn:    1.1263    constr:    0.0000
     atom:   18    charge:    3.9688    magn:    1.1101    constr:    0.0000
     atom:   19    charge:    3.9710    magn:    1.1074    constr:    0.0000
     atom:   20    charge:    3.9397    magn:    1.1451    constr:    0.0000
     atom:   21    charge:    3.9488    magn:    1.1262    constr:    0.0000
     atom:   22    charge:    3.9688    magn:    1.1101    constr:    0.0000
     atom:   23    charge:    3.9706    magn:    1.1091    constr:    0.0000
     atom:   24    charge:    3.9357    magn:    1.1556    constr:    0.0000
     atom:   25    charge:    3.9489    magn:    1.1261    constr:    0.0000
     atom:   26    charge:    3.9687    magn:    1.1107    constr:    0.0000
     atom:   27    charge:    3.9700    magn:    1.1093    constr:    0.0000
     atom:   28    charge:    3.9362    magn:    1.1546    constr:    0.0000
[...]

     Forces acting on atoms (Ry/au):

     negative rho (up, down):  3.685E-04 3.234E-04
     atom    1 type  1   force =    -0.00007693    0.00005197    0.00452573
     atom    2 type  1   force =    -0.00003120   -0.00023365   -0.00404927
     atom    3 type  1   force =     0.00010422    0.00130845   -0.01878363
     atom    4 type  1   force =     0.00497946   -0.00466364    0.05293103
     atom    5 type  1   force =     0.00004861   -0.00007843    0.00443534
     atom    6 type  1   force =     0.00030903    0.00008545   -0.00437469
     atom    7 type  1   force =     0.00103054   -0.00058904   -0.01871991
     atom    8 type  1   force =     0.00178661   -0.01595438    0.04564566
     atom    9 type  1   force =     0.00000435   -0.00003551    0.00452840
     atom   10 type  1   force =    -0.00024993    0.00011960   -0.00404968
     atom   11 type  1   force =     0.00009036    0.00005501   -0.01662939
     atom   12 type  1   force =    -0.00589341   -0.01882741    0.04945886
     atom   13 type  1   force =     0.00001893    0.00008341    0.00453634
     atom   14 type  1   force =    -0.00016010   -0.00007820   -0.00360653
     atom   15 type  1   force =     0.00005433    0.00097978   -0.01888758
     atom   16 type  1   force =    -0.00668674   -0.00982468    0.06062887
     atom   17 type  1   force =    -0.00004586    0.00029644    0.00449685
     atom   18 type  1   force =    -0.00028165    0.00005764   -0.00442706
     atom   19 type  1   force =     0.00014501   -0.00031635   -0.00495412
     atom   20 type  1   force =     0.00335283   -0.00423295    0.05491041
     atom   21 type  1   force =     0.00027714   -0.00023329    0.00461564
     atom   22 type  1   force =     0.00001798   -0.00028884   -0.00449962
     atom   23 type  1   force =     0.00096860   -0.00080790   -0.01861112
     atom   24 type  1   force =    -0.00410325   -0.02077968    0.05277949
     atom   25 type  1   force =     0.00002699    0.00004998    0.00449814
     atom   26 type  1   force =     0.00024467   -0.00010815   -0.00346752
     atom   27 type  1   force =     0.00006752    0.00012789   -0.01883138
     atom   28 type  1   force =     0.01543050   -0.01079253    0.05909032
     atom   29 type  1   force =    -0.00004649   -0.00003114    0.00444527
     atom   30 type  1   force =    -0.00002562    0.00017022   -0.00375218
     atom   31 type  1   force =    -0.00121959   -0.00045280   -0.01850782
     atom   32 type  1   force =     0.00235925   -0.00757071    0.05176855
     atom   33 type  1   force =    -0.00026627   -0.00021405    0.00453620
     atom   34 type  1   force =     0.00025563    0.00020903   -0.00408718
     atom   35 type  1   force =    -0.00085508   -0.00109133   -0.01857199
     atom   36 type  1   force =     0.01276037   -0.01933549    0.04956585
     atom   37 type  2   force =    -0.00461106   -0.04799935   -0.04286860
     atom   38 type  2   force =     0.01162354   -0.02086848   -0.04065932
     atom   39 type  2   force =    -0.02593795    0.04924053   -0.04062589
     atom   40 type  2   force =    -0.00719314    0.02087376   -0.03954994
     atom   41 type  2   force =     0.01767980    0.05132184   -0.04059579
     atom   42 type  2   force =    -0.00582367    0.01587490   -0.04113285
     atom   43 type  2   force =    -0.04566945    0.02333548   -0.04167622
     atom   44 type  2   force =     0.03554117    0.02116660   -0.04147768

     Total force =     0.241560     Total SCF correction =     0.002235
 !ASE

     Writing output data file calc.save
     Check: negative starting charge=(component1):   -0.000678
     NEW-OLD atomic charge density approx. for the potential

     Check: negative/imaginary core charge=   -0.000009    0.000000
     Check: negative starting charge=(component1):   -0.000674

[...]

     iteration #  1     ecut=    44.10 Ry     beta=0.10
     Davidson diagonalization with overlap
     c_bands:  1 eigenvalues not converged
     c_bands:  1 eigenvalues not converged
     c_bands:  1 eigenvalues not converged
     c_bands:  1 eigenvalues not converged
     c_bands:  1 eigenvalues not converged
     c_bands:  1 eigenvalues not converged
     c_bands:  1 eigenvalues not converged
     c_bands:  1 eigenvalues not converged
     c_bands:  1 eigenvalues not converged
     ethr =  2.34E-10,  avg # of iterations = 20.0

[...]

     iteration # 11     ecut=    44.10 Ry     beta=0.10
     Davidson diagonalization with overlap
     c_bands:  1 eigenvalues not converged
     c_bands:  1 eigenvalues not converged
     ethr =  1.88E-06,  avg # of iterations =  9.5

[...]

     Total force =     0.030292     Total SCF correction =     0.003432
     SCF correction compared to forces is large: reduce conv_thr to get better values
 !ASE

[...]

     Total force =     0.022495     Total SCF correction =     0.001834
 !ASE

[...]

     Writing output data file calc.save
     Check: negative starting charge=(component1):   -0.000675
     NEW-OLD atomic charge density approx. for the potential

     Check: negative/imaginary core charge=   -0.000009    0.000000
     Check: negative starting charge=(component1):   -0.000675

[...]

     Self-consistent Calculation

[...]

     total energy              =   -3892.01949442 Ry
     Harris-Foulkes estimate   =   -3892.01949435 Ry
     estimated scf accuracy    <       0.00000080 Ry

[...]

     iteration # 17     ecut=    44.10 Ry     beta=0.10
     Davidson diagonalization with overlap
     ethr =  1.85E-10,  avg # of iterations =  1.0

     negative rho (up, down):  3.685E-04 3.316E-04

[...]

     Adding external electric field

     Computed dipole along edir(3) :
        Dipole               -0.9353 Ry au,         -2.3773 Debye
        Dipole field         -0.0017 Ry au

        Potential amp.        0.1301 Ry
        Total length         38.9923 bohr

     Magnetic moment per site:
     atom:    1    charge:    3.9714    magn:    0.3815    constr:    0.0000
     atom:    2    charge:    3.9689    magn:    0.3805    constr:    0.0000
     atom:    3    charge:    3.9654    magn:    0.3398    constr:    0.0000
     atom:    4    charge:    3.9455    magn:    0.0407    constr:    0.0000
     atom:    5    charge:    3.9714    magn:    0.3825    constr:    0.0000
     atom:    6    charge:    3.9689    magn:    0.3787    constr:    0.0000
     atom:    7    charge:    3.9660    magn:    0.3399    constr:    0.0000
     atom:    8    charge:    3.9175    magn:    0.0407    constr:    0.0000
     atom:    9    charge:    3.9714    magn:    0.3816    constr:    0.0000
     atom:   10    charge:    3.9689    magn:    0.3806    constr:    0.0000
     atom:   11    charge:    3.9705    magn:    0.3476    constr:    0.0000
     atom:   12    charge:    3.6336    magn:    0.0441    constr:    0.0000
     atom:   13    charge:    3.9714    magn:    0.3815    constr:    0.0000
     atom:   14    charge:    3.9688    magn:    0.3812    constr:    0.0000
     atom:   15    charge:    3.9650    magn:    0.3397    constr:    0.0000
     atom:   16    charge:    3.7455    magn:    0.0301    constr:    0.0000
     atom:   17    charge:    3.9713    magn:    0.3811    constr:    0.0000
     atom:   18    charge:    3.9689    magn:    0.3787    constr:    0.0000
     atom:   19    charge:    3.9629    magn:    0.3109    constr:    0.0000
     atom:   20    charge:    3.9257    magn:    0.0408    constr:    0.0000
     atom:   21    charge:    3.9713    magn:    0.3811    constr:    0.0000
     atom:   22    charge:    3.9689    magn:    0.3788    constr:    0.0000
     atom:   23    charge:    3.9675    magn:    0.3401    constr:    0.0000
     atom:   24    charge:    3.7382    magn:    0.0303    constr:    0.0000
     atom:   25    charge:    3.9714    magn:    0.3825    constr:    0.0000
     atom:   26    charge:    3.9687    magn:    0.3811    constr:    0.0000
     atom:   27    charge:    3.9702    magn:    0.3415    constr:    0.0000
     atom:   28    charge:    3.7469    magn:    0.0304    constr:    0.0000
     atom:   29    charge:    3.9714    magn:    0.3825    constr:    0.0000
     atom:   30    charge:    3.9688    magn:    0.3813    constr:    0.0000
     atom:   31    charge:    3.9651    magn:    0.3399    constr:    0.0000
     atom:   32    charge:    3.6438    magn:    0.0445    constr:    0.0000
     atom:   33    charge:    3.9714    magn:    0.3811    constr:    0.0000
     atom:   34    charge:    3.9689    magn:    0.3806    constr:    0.0000
     atom:   35    charge:    3.9671    magn:    0.3400    constr:    0.0000
     atom:   36    charge:    3.6292    magn:    0.0438    constr:    0.0000
     atom:   37    charge:    1.9278    magn:    0.0074    constr:    0.0000
     atom:   38    charge:    2.0129    magn:    0.0077    constr:    0.0000
     atom:   39    charge:    1.8953    magn:    0.0073    constr:    0.0000
     atom:   40    charge:    2.0147    magn:    0.0096    constr:    0.0000
     atom:   41    charge:    1.9203    magn:    0.0074    constr:    0.0000
     atom:   42    charge:    2.0088    magn:    0.0100    constr:    0.0000
     atom:   43    charge:    1.9297    magn:    0.0075    constr:    0.0000
     atom:   44    charge:    1.9695    magn:    0.0076    constr:    0.0000

     End of self-consistent calculation

 ------ SPIN UP ------------

[...]

 ------ SPIN DOWN ----------

[...]

          k = 0.0442-0.0255 0.0000 ( 34862 PWs)   bands (ev):

   -18.0250 -17.6280 -17.3834 -17.2854 -16.8816 -16.8462 -16.7515 -16.5712
    -5.7653  -5.2051  -4.9052  -4.8748  -4.8001  -4.7097  -4.5283  -4.4930
    -4.3272  -3.9909  -3.9415  -3.7982  -3.6982  -3.6617  -3.5638  -3.2362
    -3.2215  -3.1579  -3.1399  -3.0521  -2.9710  -2.8511  -2.8046  -2.7702
    -2.6972  -2.6310  -2.6056  -2.4768  -2.3544  -2.2576  -2.1012  -2.0229
    -1.9950  -1.9883  -1.9129  -1.8400  -1.6733  -1.5570  -1.5308  -1.4628
    -1.3693  -1.2962  -1.2690  -1.1686  -1.0871  -1.0744  -1.0564  -1.0369
    -1.0093  -1.0002  -0.9975  -0.8554  -0.8542  -0.8065  -0.7942  -0.7812
    -0.7612  -0.7350  -0.6990  -0.6895  -0.6330  -0.5827  -0.5739  -0.5361
    -0.5115  -0.5054  -0.4841  -0.4728  -0.4052  -0.3997  -0.3517  -0.3353
    -0.2951  -0.2549  -0.2467  -0.2067  -0.2017  -0.1357  -0.1260  -0.0858
    -0.0583  -0.0472  -0.0198   0.0222   0.0353   0.0630   0.0809   0.1227
     0.1509   0.1726   0.1910   0.2010   0.2314   0.2352   0.2935   0.3057
     0.3544   0.3863   0.4020   0.4337   0.5091   0.5241   0.5302   0.5480
     0.5640   0.5662   0.5939   0.6010   0.6241   0.6431   0.6541   0.6668
     0.6889   0.7006   0.7262   0.7450   0.7792   0.8195   0.8519   0.8550
     0.8830   0.8891   0.9015   0.9179   0.9200   0.9645   0.9857   0.9917
     1.0044   1.0096   1.0178   1.0570   1.0892   1.1074   1.1449   1.1717
     1.1772   1.1887   1.1925   1.2670   1.2873   1.3164   1.3169   1.3305
     1.3355   1.3368   1.3649   1.4801   1.4850   1.5160   1.5584   1.5771
     1.5853   1.6048   1.6157   1.6678   1.6793   1.6861   1.7269   1.7410
     1.7682   1.7859   1.8060   1.8066   1.8129   1.8247   1.8418   1.8754
     1.8805   1.9491   2.0135   2.0175   2.0303   2.0345   2.0370   2.0877
     2.1232   2.1501   2.1551   2.1625   2.1889   2.2185   2.2326   2.2671
     2.2765   2.2826   2.3203   2.3392   2.3421   2.3621   2.3877   2.4034
     2.4067   2.4154   2.4545   2.4625   2.4685   2.4819   2.4940   2.5055
     2.5116   2.5508   2.5538   2.6174   2.6374   2.6434   2.6658   2.7252
     2.7941   2.7997   2.8256   2.9259   2.9597   3.0094   3.0810   3.0916
     3.2556   3.5161   3.6142   3.6558   3.6977   3.9340   4.1463   4.7931
     4.8114   4.9880   5.2712   5.4136   5.5345   5.6636   5.6847   6.1121
     6.3466   6.8506   7.1050   7.2579   7.3198   7.8554   8.1645   8.1954
     8.2560   8.4602   8.4917   8.5250   8.8166   9.0382   9.1849   9.2138
     9.4297   9.4973   9.5097   9.5344   9.5442   9.6375   9.6898  10.0307
    10.2490  10.3811  10.4069  10.4132  10.4757  10.4925  10.7130  10.7743
    10.8377  10.8467  11.0867  11.0942  11.4769  11.5202  11.5348  11.6735
    11.7539  11.7946  11.8388  12.0624  12.2345  12.2510  12.4692  12.4734
    12.6155  12.6368  12.7831  12.9391  13.1027  13.1340  13.1687  13.2008
    13.2786  13.3995  13.6230  13.6553  13.6692  13.6934  13.7198  13.9120

     the Fermi energy is     2.3125 ev

!    total energy              =   -3892.01949412 Ry
     Harris-Foulkes estimate   =   -3892.01950414 Ry
     estimated scf accuracy    <       0.00000059 Ry

     The total energy is the sum of the following terms:

     one-electron contribution =  -26502.32591852 Ry
     hartree contribution      =   13672.74857903 Ry
     xc contribution           =   -1576.30106597 Ry
     ewald contribution        =   10514.02046979 Ry
     electric field correction =       0.00156007 Ry
     smearing contrib. (-TS)   =      -0.16311851 Ry

     total magnetization       =    16.80 Bohr mag/cell
     absolute magnetization    =    19.52 Bohr mag/cell

     convergence has been achieved in  17 iterations

     Forces acting on atoms (Ry/au):

     negative rho (up, down):  3.685E-04 3.316E-04
     atom    1 type  1   force =    -0.00009203    0.00010332    0.00395136
     atom    2 type  1   force =     0.00010317   -0.00126298   -0.00409931
     atom    3 type  1   force =     0.00013148    0.00045298    0.00059242
     atom    4 type  1   force =     0.00030768    0.00005592    0.00069933
     atom    5 type  1   force =    -0.00007027   -0.00004874    0.00366015
     atom    6 type  1   force =    -0.00004277   -0.00037082   -0.00630548
     atom    7 type  1   force =     0.00023395    0.00008287    0.00041606
     atom    8 type  1   force =     0.00042398    0.00023409    0.00052681
     atom    9 type  1   force =     0.00009007   -0.00014021    0.00394241
     atom   10 type  1   force =    -0.00069899    0.00016092   -0.00395680
     atom   11 type  1   force =     0.00019588    0.00010171    0.00022882
     atom   12 type  1   force =    -0.00041016    0.00041226    0.00034864
     atom   13 type  1   force =     0.00011657    0.00001635    0.00393251
     atom   14 type  1   force =     0.00084542    0.00001437   -0.00544511
     atom   15 type  1   force =    -0.00009466    0.00012235    0.00056988
     atom   16 type  1   force =    -0.00010279    0.00065730   -0.00046747
     atom   17 type  1   force =    -0.00005818    0.00030046    0.00409199
     atom   18 type  1   force =     0.00021607   -0.00040910   -0.00639434
     atom   19 type  1   force =    -0.00031816    0.00014022    0.00072832
     atom   20 type  1   force =    -0.00052216    0.00100480    0.00123309
     atom   21 type  1   force =     0.00024879   -0.00021224    0.00412459
     atom   22 type  1   force =     0.00004361   -0.00016998   -0.00617673
     atom   23 type  1   force =     0.00006352   -0.00005170    0.00044660
     atom   24 type  1   force =     0.00003863    0.00056141    0.00022449
     atom   25 type  1   force =    -0.00002737    0.00008749    0.00364705
     atom   26 type  1   force =    -0.00064190    0.00002887   -0.00549252
     atom   27 type  1   force =    -0.00010588    0.00005705    0.00043593
     atom   28 type  1   force =     0.00018568   -0.00010859   -0.00018982
     atom   29 type  1   force =     0.00014683   -0.00011759    0.00365766
     atom   30 type  1   force =     0.00017706   -0.00119159   -0.00549600
     atom   31 type  1   force =    -0.00006802   -0.00007047    0.00050039
     atom   32 type  1   force =     0.00007875   -0.00083516    0.00048311
     atom   33 type  1   force =    -0.00033011   -0.00018987    0.00411319
     atom   34 type  1   force =     0.00097953    0.00017393   -0.00406632
     atom   35 type  1   force =    -0.00045512    0.00018925    0.00054679
     atom   36 type  1   force =     0.00038692    0.00034907   -0.00001731
     atom   37 type  2   force =    -0.00029821   -0.00037829    0.00068699
     atom   38 type  2   force =    -0.00019156   -0.00009259    0.00104153
     atom   39 type  2   force =    -0.00047391   -0.00037837    0.00103511
     atom   40 type  2   force =     0.00024866   -0.00048714   -0.00050334
     atom   41 type  2   force =    -0.00005421   -0.00000503    0.00126357
     atom   42 type  2   force =     0.00002833    0.00032927   -0.00025740
     atom   43 type  2   force =     0.00046612    0.00041528    0.00070556
     atom   44 type  2   force =    -0.00070025    0.00046894    0.00103359

     Total force =     0.020489     Total SCF correction =     0.004264
     SCF correction compared to forces is large: reduce conv_thr to get better values
 !ASE

     Writing output data file calc.save

     General routines

     Parallel routines

   This run was terminated on:   6:58: 9  24Apr2017

   JOB DONE.