     Program PWSCF v.5.1rc2 (svn rev. ) starts on 10Mar2017 at 15: 9:36

     Current dimensions of program PWSCF are:
     Max number of different atomic species (ntypx) = 10
     Max number of k-points (npk) =  40000
     Max angular momentum in pseudopotentials (lmaxx) =  3
     Presently no symmetry can be used with electric field

     IMPORTANT: XC functional enforced from input :
     Exchange-correlation      = RPBE ( 1  4 28  4 0)
     Any further DFT definition will be discarded
     Please, verify this is what you really want

               file Ni.UPF: wavefunction(s)  3D renormalized

     Subspace diagonalization in iterative solution of the eigenvalue problem:
     a serial algorithm will be used

     Generating pointlists ...
     new r_m :   0.4125 (alat units)  0.7795 (a.u.) for type    1
     new r_m :   0.4125 (alat units)  0.7795 (a.u.) for type    2

     bravais-lattice index     =            0
     lattice parameter (alat)  =       1.8897  a.u.
     unit-cell volume          =    7046.4111 (a.u.)^3
     number of atoms/cell      =           37
     number of atomic types    =            2
     number of electrons       =       366.00
     number of Kohn-Sham states=          283
     kinetic-energy cutoff     =      44.0992  Ry
     charge density cutoff     =     440.9919  Ry
     convergence threshold     =      7.3E-07
     mixing beta               =       0.1000
     number of iterations used =           10  plain     mixing
     Exchange-correlation      = RPBE ( 1  4 28  4 0)
     nstep                     =           50

     celldm(1)=   1.889726  celldm(2)=   0.000000  celldm(3)=   0.000000
     celldm(4)=   0.000000  celldm(5)=   0.000000  celldm(6)=   0.000000

     crystal axes: (cart. coord. in units of alat)
               a(1) = (   7.548011   0.000000   0.000000 )
               a(2) = (  -3.774005   6.536769   0.000000 )
               a(3) = (   0.000000   0.000000  21.162925 )

     reciprocal axes: (cart. coord. in units 2 pi/alat)
               b(1) = (  0.132485  0.076490  0.000000 )
               b(2) = (  0.000000  0.152981  0.000000 )
               b(3) = (  0.000000  0.000000  0.047252 )

     PseudoPot. # 1 for Ni read from file:
     /home/alatimer/bin/psp/esp_psp_w_gbrvRu/Ni.UPF
     MD5 check sum: 8b2449ee0060d9c33484ccd47bb60870
     Pseudo is Ultrasoft + core correction, Zval = 10.0
     Generated using "atomic" code by A. Dal Corso  v.5.0.2 svn rev. 9415
     Using radial grid of 1195 points,  6 beta functions with:
                l(1) =   0
                l(2) =   0
                l(3) =   1
                l(4) =   1
                l(5) =   2
                l(6) =   2
     Q(r) pseudized with 0 coefficients

     PseudoPot. # 2 for  O read from file:
     /home/alatimer/bin/psp/esp_psp_w_gbrvRu/O.UPF
     MD5 check sum: e057bbcf3229fb5d8c36c0c92f9568b4
     Pseudo is Ultrasoft + core correction, Zval =  6.0
     Generated using "atomic" code by A. Dal Corso  v.5.0.2 svn rev. 9415
     Using radial grid of 1095 points,  4 beta functions with:
                l(1) =   0
                l(2) =   0
                l(3) =   1
                l(4) =   1
     Q(r) pseudized with 0 coefficients

     atomic species   valence    mass     pseudopotential
        Ni1           10.00    58.69340     Ni( 1.00)
        O1             6.00    15.99940      O( 1.00)

     Starting magnetic structure
     atomic species   magnetization
        Ni1          0.300
        O1           0.500

     No symmetry found

   Cartesian axes

     site n.     atom                  positions (alat units)
         1           Ni1 tau(   1) = (   0.0000000   0.0000000   7.5000000  )
         2           Ni1 tau(   2) = (   1.2580018   0.7263077   9.5543084  )
         3           Ni1 tau(   3) = (   0.0000000   1.4526154  11.6086168  )
         4           Ni1 tau(   4) = (   1.2580018   2.1789231  13.6629252  )
         5           Ni1 tau(   5) = (  -1.2580018   2.1789231   7.5000000  )
         6           Ni1 tau(   6) = (   0.0000000   2.9052308   9.5543084  )
         7           Ni1 tau(   7) = (  -1.2580018   3.6315385  11.6086168  )
         8           Ni1 tau(   8) = (  -0.0000000   4.3578462  13.6629252  )
         9           Ni1 tau(   9) = (  -2.5160037   4.3578462   7.5000000  )
        10           Ni1 tau(  10) = (  -1.2580018   5.0841539   9.5543084  )
        11           Ni1 tau(  11) = (  -2.5160037   5.8104616  11.6086168  )
        12           Ni1 tau(  12) = (  -1.2580018   6.5367693  13.6629252  )
        13           Ni1 tau(  13) = (   2.5160037   0.0000000   7.5000000  )
        14           Ni1 tau(  14) = (   3.7740055   0.7263077   9.5543084  )
        15           Ni1 tau(  15) = (   2.5160037   1.4526154  11.6086168  )
        16           Ni1 tau(  16) = (   3.7740055   2.1789231  13.6629252  )
        17           Ni1 tau(  17) = (   1.2580018   2.1789231   7.5000000  )
        18           Ni1 tau(  18) = (   2.5160037   2.9052308   9.5543084  )
        19           Ni1 tau(  19) = (   1.2580018   3.6315385  11.6086168  )
        20           Ni1 tau(  20) = (   2.5160037   4.3578462  13.6629252  )
        21           Ni1 tau(  21) = (  -0.0000000   4.3578462   7.5000000  )
        22           Ni1 tau(  22) = (   1.2580018   5.0841539   9.5543084  )
        23           Ni1 tau(  23) = (  -0.0000000   5.8104616  11.6086168  )
        24           Ni1 tau(  24) = (   1.2580018   6.5367693  13.6629252  )
        25           Ni1 tau(  25) = (   5.0320073   0.0000000   7.5000000  )
        26           Ni1 tau(  26) = (   6.2900092   0.7263077   9.5543084  )
        27           Ni1 tau(  27) = (   5.0320073   1.4526154  11.6086168  )
        28           Ni1 tau(  28) = (   6.2900092   2.1789231  13.6629252  )
        29           Ni1 tau(  29) = (   3.7740055   2.1789231   7.5000000  )
        30           Ni1 tau(  30) = (   5.0320073   2.9052308   9.5543084  )
        31           Ni1 tau(  31) = (   3.7740055   3.6315385  11.6086168  )
        32           Ni1 tau(  32) = (   5.0320073   4.3578462  13.6629252  )
        33           Ni1 tau(  33) = (   2.5160037   4.3578462   7.5000000  )
        34           Ni1 tau(  34) = (   3.7740055   5.0841539   9.5543084  )
        35           Ni1 tau(  35) = (   2.5160037   5.8104616  11.6086168  )
        36           Ni1 tau(  36) = (   3.7740055   6.5367693  13.6629252  )
        37           O1  tau(  37) = (   1.2580018   3.6315385  14.9629252  )

     number of k points=    10  Fermi-Dirac smearing, width (Ry)=  0.0073
                       cart. coord. in units 2pi/alat
        k(    1) = (   0.0000000   0.0000000   0.0000000), wk =   0.1111111
        k(    2) = (   0.0000000   0.0509936   0.0000000), wk =   0.2222222
        k(    3) = (   0.0441617   0.0254968   0.0000000), wk =   0.2222222
        k(    4) = (   0.0441617   0.0764904   0.0000000), wk =   0.2222222
        k(    5) = (   0.0441617  -0.0254968   0.0000000), wk =   0.2222222
        k(    6) = (   0.0000000   0.0000000   0.0000000), wk =   0.1111111
        k(    7) = (   0.0000000   0.0509936   0.0000000), wk =   0.2222222
        k(    8) = (   0.0441617   0.0254968   0.0000000), wk =   0.2222222
        k(    9) = (   0.0441617   0.0764904   0.0000000), wk =   0.2222222
        k(   10) = (   0.0441617  -0.0254968   0.0000000), wk =   0.2222222

     Largest allocated arrays     est. size (Mb)     dimensions
     Largest temporary arrays     est. size (Mb)     dimensions

     Check: negative/imaginary core charge=   -0.000003    0.000000

     Initial potential from superposition of free atoms
     Check: negative starting charge=(component1):   -0.000377
     Check: negative starting charge=(component2):   -0.000198

     starting charge  365.99096, renormalised to  366.00000

     negative rho (up, down):  3.771E-04 1.980E-04

     Adding external electric field

     Computed dipole along edir(3) :
        Dipole               -0.0012 Ry au,         -0.0031 Debye
        Dipole field         -0.0000 Ry au

        Potential amp.        0.0002 Ry
        Total length         38.9923 bohr

[...]

     Starting wfc are  328 randomized atomic wfcs

     Self-consistent Calculation

     iteration #  1     ecut=    44.10 Ry     beta=0.10
     Davidson diagonalization with overlap
     ethr =  1.00E-02,  avg # of iterations =  7.1

[...]

     Magnetic moment per site:
     atom:    1    charge:    3.9491    magn:    1.1260    constr:    0.0000
     atom:    2    charge:    3.9681    magn:    1.1116    constr:    0.0000
     atom:    3    charge:    3.9687    magn:    1.1109    constr:    0.0000
     atom:    4    charge:    3.9441    magn:    1.1332    constr:    0.0000
     atom:    5    charge:    3.9489    magn:    1.1263    constr:    0.0000
     atom:    6    charge:    3.9681    magn:    1.1118    constr:    0.0000
     atom:    7    charge:    3.9687    magn:    1.1109    constr:    0.0000
     atom:    8    charge:    3.9441    magn:    1.1332    constr:    0.0000
     atom:    9    charge:    3.9491    magn:    1.1260    constr:    0.0000
     atom:   10    charge:    3.9681    magn:    1.1116    constr:    0.0000
     atom:   11    charge:    3.9684    magn:    1.1118    constr:    0.0000
     atom:   12    charge:    3.9488    magn:    1.1268    constr:    0.0000
     atom:   13    charge:    3.9491    magn:    1.1260    constr:    0.0000
     atom:   14    charge:    3.9682    magn:    1.1112    constr:    0.0000
     atom:   15    charge:    3.9687    magn:    1.1109    constr:    0.0000
     atom:   16    charge:    3.9494    magn:    1.1267    constr:    0.0000
     atom:   17    charge:    3.9493    magn:    1.1262    constr:    0.0000
     atom:   18    charge:    3.9681    magn:    1.1118    constr:    0.0000
     atom:   19    charge:    3.9685    magn:    1.1121    constr:    0.0000
     atom:   20    charge:    3.9441    magn:    1.1332    constr:    0.0000
     atom:   21    charge:    3.9493    magn:    1.1262    constr:    0.0000
     atom:   22    charge:    3.9681    magn:    1.1118    constr:    0.0000
     atom:   23    charge:    3.9687    magn:    1.1109    constr:    0.0000
     atom:   24    charge:    3.9494    magn:    1.1267    constr:    0.0000
     atom:   25    charge:    3.9489    magn:    1.1263    constr:    0.0000
     atom:   26    charge:    3.9682    magn:    1.1112    constr:    0.0000
     atom:   27    charge:    3.9685    magn:    1.1116    constr:    0.0000
     atom:   28    charge:    3.9494    magn:    1.1267    constr:    0.0000
     atom:   29    charge:    3.9489    magn:    1.1264    constr:    0.0000
     atom:   30    charge:    3.9682    magn:    1.1112    constr:    0.0000
     atom:   31    charge:    3.9687    magn:    1.1109    constr:    0.0000
     atom:   32    charge:    3.9488    magn:    1.1268    constr:    0.0000
     atom:   33    charge:    3.9493    magn:    1.1262    constr:    0.0000
     atom:   34    charge:    3.9681    magn:    1.1116    constr:    0.0000
     atom:   35    charge:    3.9687    magn:    1.1109    constr:    0.0000
[...]
    -0.0494  -0.0494  -0.0494  -0.0387  -0.0387  -0.0232   0.0322   0.0373
     0.0384   0.0384   0.0642   0.0834   0.1023   0.1023   0.1170   0.1170
     0.1172   0.1191   0.1292   0.1292   0.1336   0.1336   0.1775   0.1775
     0.1865   0.2105   0.2106   0.2317   0.3178   0.3178   0.3355   0.4611
     0.4611   0.4768   0.5047   0.5047   0.5752   0.6010   0.6010   0.6057
     0.6264   0.6328   0.6328   0.6812   0.6876   0.6876   0.7061   0.7061
     0.7291   0.7291   0.8863   0.8864   0.8959   0.8962   0.9131   0.9131
     0.9901   1.0035   1.0036   1.0110   1.0110   1.0120   1.0285   1.0285
     1.0866   1.1026   1.1118   1.1118   1.1324   1.1324   1.1676   1.1985
     1.1985   1.2035   1.2035   1.2174   1.2436   1.2521   1.2521   1.2726
     1.2832   1.2832   1.2868   1.2868   1.2959   1.2973   1.2973   1.3032
     1.3198   1.3198   1.3310   1.3401   1.3401   1.3541   1.3541   1.3545
     1.3903   1.3903   1.3978   1.3978   1.3997   1.4104   1.4104   1.4133
     1.4150   1.4273   1.4302   1.4302   1.5202   1.5202   1.5596   1.5596
     1.5602   1.5696   1.5696   1.5764   1.5948   1.7629   1.7629   2.1659
     2.5229   2.7160   2.7160   2.7191   3.0680   3.0680   3.9078   5.0928
     5.0945   5.0945   5.4306   5.4306   6.0012   6.5534   6.7913   6.7913
     6.9118   7.0418   7.0507   7.0656   7.0656   7.5184   7.5184   7.5190
     7.7424   7.7797   7.7797   7.7920   7.8716   7.8717   8.0764   8.7913
     8.8027   8.8027   9.0477   9.6594   9.6594   9.6774   9.6800   9.6850
     9.6850   9.7449   9.8889   9.8889   9.9992  10.1437  10.1437  10.1483
    10.1483  10.1607  10.3246  10.8078  10.8153  10.8153  10.8415  10.8415
    10.8506  10.8732  11.1825  11.1825  11.2125  11.5502  11.5502  11.5638
    11.5638  11.5778  11.6455  11.6582  11.6582  11.6726  11.6726  11.7429
    11.8965  12.1584  12.1584  12.5369  12.5369  12.5825  12.5997  12.5997
    12.6730  13.2617  13.2814

[...]

 ------ SPIN DOWN ----------

[...]

     the Fermi energy is     2.1267 ev

!    total energy              =   -3656.59697895 Ry
     Harris-Foulkes estimate   =   -3656.59697510 Ry
     estimated scf accuracy    <       0.00000069 Ry

     The total energy is the sum of the following terms:

     one-electron contribution =  -24320.70088676 Ry
     hartree contribution      =   12561.76836657 Ry
     xc contribution           =   -1514.21017461 Ry
     ewald contribution        =    9616.70957768 Ry
     electric field correction =       0.00009620 Ry
     smearing contrib. (-TS)   =      -0.16395804 Ry

[...]

     convergence has been achieved in  45 iterations

     Forces acting on atoms (Ry/au):

     negative rho (up, down):  2.952E-04 2.257E-04
     atom    1 type  1   force =    -0.00001608    0.00000209    0.00498425
     atom    2 type  1   force =    -0.00002808   -0.00003507   -0.00377417
     atom    3 type  1   force =     0.00154319   -0.00036195    0.00378760
     atom    4 type  1   force =    -0.00000513    0.00620052    0.03290077
     atom    5 type  1   force =     0.00070923    0.00032911    0.00492777
     atom    6 type  1   force =    -0.00054141   -0.00037486   -0.00276773
     atom    7 type  1   force =     0.00053310    0.00148532    0.00379861
     atom    8 type  1   force =     0.00542715   -0.00307872    0.03291136
     atom    9 type  1   force =    -0.00003645    0.00004646    0.00494552
     atom   10 type  1   force =    -0.00001661    0.00007226   -0.00376309
     atom   11 type  1   force =    -0.00003729    0.00005187    0.00346549
     atom   12 type  1   force =    -0.00129556   -0.00073895   -0.00938972
     atom   13 type  1   force =    -0.00001675    0.00002522    0.00496455
     atom   14 type  1   force =     0.00087446    0.00047313   -0.00496033
     atom   15 type  1   force =    -0.00155845   -0.00032719    0.00378500
     atom   16 type  1   force =     0.01254319   -0.00728330   -0.00933830
     atom   17 type  1   force =     0.00000416   -0.00015134    0.00463166
     atom   18 type  1   force =     0.00055881   -0.00033344   -0.00277485
     atom   19 type  1   force =     0.00002185    0.00002391   -0.01751687
     atom   20 type  1   force =    -0.00540920   -0.00306167    0.03289592
     atom   21 type  1   force =    -0.00006120    0.00008361    0.00462064
     atom   22 type  1   force =     0.00004488    0.00071322   -0.00276024
     atom   23 type  1   force =    -0.00098721   -0.00115435    0.00379758
     atom   24 type  1   force =     0.00002511    0.01447678   -0.00936093
     atom   25 type  1   force =     0.00003315   -0.00080684    0.00495359
     atom   26 type  1   force =    -0.00084676    0.00043703   -0.00496009
     atom   27 type  1   force =     0.00001575   -0.00007676    0.00571520
     atom   28 type  1   force =    -0.01253766   -0.00730893   -0.00933819
     atom   29 type  1   force =    -0.00071331    0.00037025    0.00492809
     atom   30 type  1   force =    -0.00001741   -0.00102949   -0.00496198
     atom   31 type  1   force =    -0.00055510    0.00151613    0.00378760
     atom   32 type  1   force =    -0.00001953    0.00154086   -0.00937271
     atom   33 type  1   force =     0.00009783    0.00009984    0.00463822
     atom   34 type  1   force =    -0.00002884    0.00007804   -0.00376875
     atom   35 type  1   force =     0.00102555   -0.00115802    0.00379017
     atom   36 type  1   force =     0.00127039   -0.00074655   -0.00940358
     atom   37 type  2   force =     0.00000023    0.00000180   -0.06601808

     Total force =     0.098467     Total SCF correction =     0.003733
 !ASE

     Writing output data file calc.save
     Check: negative starting charge=(component1):   -0.000574
     NEW-OLD atomic charge density approx. for the potential

     Check: negative/imaginary core charge=   -0.000003    0.000000
     Check: negative starting charge=(component1):   -0.000568

[...]

     Total force =     0.019168     Total SCF correction =     0.002867
     SCF correction compared to forces is large: reduce conv_thr to get better values
 !ASE

[...]

     Total force =     0.019964     Total SCF correction =     0.000878
 !ASE

     Writing output data file calc.save
     Check: negative starting charge=(component1):   -0.000572
     NEW-OLD atomic charge density approx. for the potential

     Check: negative/imaginary core charge=   -0.000003    0.000000
     Check: negative starting charge=(component1):   -0.000572

[...]

     Self-consistent Calculation

[...]

     total energy              =   -3656.61598176 Ry
     Harris-Foulkes estimate   =   -3656.61597887 Ry
     estimated scf accuracy    <       0.00000102 Ry

[...]

     iteration # 12     ecut=    44.10 Ry     beta=0.10
     Davidson diagonalization with overlap
     ethr =  2.19E-10,  avg # of iterations =  1.5

     negative rho (up, down):  2.929E-04 2.250E-04

[...]

     Adding external electric field

     Computed dipole along edir(3) :
        Dipole               -0.1448 Ry au,         -0.3680 Debye
        Dipole field         -0.0003 Ry au

        Potential amp.        0.0201 Ry
        Total length         38.9923 bohr

     Magnetic moment per site:
     atom:    1    charge:    3.9713    magn:    0.3708    constr:    0.0000
     atom:    2    charge:    3.9687    magn:    0.3865    constr:    0.0000
     atom:    3    charge:    3.9664    magn:    0.3807    constr:    0.0000
     atom:    4    charge:    3.8701    magn:    0.2930    constr:    0.0000
     atom:    5    charge:    3.9713    magn:    0.3818    constr:    0.0000
     atom:    6    charge:    3.9687    magn:    0.3877    constr:    0.0000
     atom:    7    charge:    3.9664    magn:    0.3807    constr:    0.0000
     atom:    8    charge:    3.8701    magn:    0.2930    constr:    0.0000
     atom:    9    charge:    3.9713    magn:    0.3708    constr:    0.0000
     atom:   10    charge:    3.9687    magn:    0.3865    constr:    0.0000
     atom:   11    charge:    3.9652    magn:    0.3763    constr:    0.0000
     atom:   12    charge:    3.9469    magn:    0.3936    constr:    0.0000
     atom:   13    charge:    3.9713    magn:    0.3708    constr:    0.0000
     atom:   14    charge:    3.9688    magn:    0.3874    constr:    0.0000
     atom:   15    charge:    3.9664    magn:    0.3807    constr:    0.0000
     atom:   16    charge:    3.9163    magn:    0.3759    constr:    0.0000
     atom:   17    charge:    3.9713    magn:    0.3731    constr:    0.0000
     atom:   18    charge:    3.9687    magn:    0.3877    constr:    0.0000
     atom:   19    charge:    3.9674    magn:    0.4010    constr:    0.0000
     atom:   20    charge:    3.8701    magn:    0.2930    constr:    0.0000
     atom:   21    charge:    3.9713    magn:    0.3731    constr:    0.0000
     atom:   22    charge:    3.9687    magn:    0.3877    constr:    0.0000
     atom:   23    charge:    3.9664    magn:    0.3807    constr:    0.0000
     atom:   24    charge:    3.9163    magn:    0.3759    constr:    0.0000
     atom:   25    charge:    3.9713    magn:    0.3818    constr:    0.0000
     atom:   26    charge:    3.9688    magn:    0.3874    constr:    0.0000
     atom:   27    charge:    3.9594    magn:    0.3809    constr:    0.0000
     atom:   28    charge:    3.9163    magn:    0.3759    constr:    0.0000
     atom:   29    charge:    3.9713    magn:    0.3818    constr:    0.0000
     atom:   30    charge:    3.9688    magn:    0.3874    constr:    0.0000
     atom:   31    charge:    3.9664    magn:    0.3806    constr:    0.0000
     atom:   32    charge:    3.9469    magn:    0.3936    constr:    0.0000
     atom:   33    charge:    3.9713    magn:    0.3731    constr:    0.0000
     atom:   34    charge:    3.9687    magn:    0.3865    constr:    0.0000
     atom:   35    charge:    3.9664    magn:    0.3806    constr:    0.0000
     atom:   36    charge:    3.9469    magn:    0.3936    constr:    0.0000
     atom:   37    charge:    1.9424    magn:    0.0643    constr:    0.0000

     End of self-consistent calculation

 ------ SPIN UP ------------

[...]

 ------ SPIN DOWN ----------

[...]

          k = 0.0442-0.0255 0.0000 ( 34862 PWs)   bands (ev):

   -16.7276  -5.8918  -4.7551  -4.5860  -3.7644  -3.7230  -3.6340  -3.2160
    -3.1458  -2.9587  -2.7088  -2.5021  -2.4551  -2.1846  -2.1739  -1.9892
    -1.9295  -1.8646  -1.7701  -1.7289  -1.7246  -1.4266  -1.4199  -1.3204
    -1.2932  -1.2825  -1.2434  -1.2391  -1.2057  -1.1773  -1.1567  -1.0990
    -0.9706  -0.9197  -0.9168  -0.9017  -0.8945  -0.7724  -0.7691  -0.7387
    -0.7377  -0.7149  -0.6565  -0.5998  -0.5955  -0.5664  -0.4588  -0.4427
    -0.4373  -0.3803  -0.3380  -0.3191  -0.2766  -0.2702  -0.2568  -0.2456
    -0.1837  -0.1211  -0.0962  -0.0848  -0.0646  -0.0125   0.0134   0.0591
     0.1437   0.1496   0.1687   0.1723   0.1946   0.2310   0.2369   0.2504
     0.2967   0.3073   0.3210   0.3569   0.3682   0.3844   0.4128   0.4297
     0.4345   0.4743   0.5122   0.5295   0.5629   0.5674   0.5763   0.5914
     0.6118   0.6127   0.6342   0.6502   0.6593   0.6849   0.7007   0.7092
     0.7132   0.7284   0.7591   0.7642   0.7826   0.7904   0.8228   0.8325
     0.8553   0.8558   0.8700   0.8845   0.8845   0.9160   0.9415   0.9518
     0.9678   0.9973   0.9978   1.0438   1.0793   1.0860   1.1321   1.1378
     1.1395   1.2383   1.2407   1.2546   1.2788   1.2833   1.3001   1.3227
     1.3436   1.3573   1.3623   1.3686   1.3733   1.4355   1.4614   1.5109
     1.5753   1.5790   1.5978   1.6039   1.6171   1.6254   1.6864   1.7139
     1.7189   1.7322   1.7483   1.7485   1.7762   1.7783   1.8019   1.8155
     1.8501   1.8710   1.8939   1.9120   1.9256   1.9613   1.9628   1.9672
     1.9710   2.0019   2.0242   2.0253   2.0592   2.0788   2.0854   2.1089
     2.1369   2.1502   2.1528   2.1744   2.1821   2.1914   2.2356   2.2551
     2.2715   2.2716   2.2858   2.2920   2.2955   2.3058   2.3274   2.3324
     2.3682   2.3974   2.3992   2.4240   2.4378   2.4428   2.4521   2.5296
     2.5760   2.6263   2.8140   2.8931   2.9165   2.9900   3.1067   3.1407
     3.3117   3.3486   3.6429   3.8596   4.1486   4.2846   4.3164   4.6268
     4.6530   4.7827   5.0826   5.1638   5.3049   5.4728   5.7718   5.9655
     6.3902   6.5130   6.5905   6.8330   6.9460   7.0783   7.2221   7.3857
     7.5548   8.0393   8.1419   8.2836   8.5085   8.5282   8.9856   8.9865
     9.0642   9.1281   9.1844   9.1981   9.2439   9.2842   9.3624   9.4192
     9.5535   9.5656   9.6614   9.8560   9.9629  10.1218  10.2415  10.4324
    10.4663  10.6916  10.7167  10.7904  10.8443  11.0381  11.0594  11.1630
    11.2461  11.2774  11.4116  11.5523  11.5636  11.6400  11.7734  11.7768
    11.9382  12.1032  12.2517  12.2626  12.3419  12.4580  12.4814  12.6280
    12.7267  12.9392  12.9785  13.0865  13.1372  13.1723  13.1873  13.4104
    13.4147  13.4812  13.4871

     the Fermi energy is     2.1739 ev

!    total energy              =   -3656.61600861 Ry
     Harris-Foulkes estimate   =   -3656.61598318 Ry
     estimated scf accuracy    <       0.00000027 Ry

     The total energy is the sum of the following terms:

     one-electron contribution =  -24384.76316190 Ry
     hartree contribution      =   12594.12553926 Ry
     xc contribution           =   -1514.31449583 Ry
     ewald contribution        =    9648.49956713 Ry
     electric field correction =       0.00003738 Ry
     smearing contrib. (-TS)   =      -0.16349464 Ry

     total magnetization       =    22.04 Bohr mag/cell
     absolute magnetization    =    25.75 Bohr mag/cell

     convergence has been achieved in  12 iterations

     Forces acting on atoms (Ry/au):

     negative rho (up, down):  2.929E-04 2.250E-04
     atom    1 type  1   force =    -0.00003166    0.00003595    0.00457552
     atom    2 type  1   force =    -0.00000079    0.00086347   -0.00494778
     atom    3 type  1   force =     0.00004384    0.00000184   -0.00003054
     atom    4 type  1   force =    -0.00000936   -0.00036161    0.00002568
     atom    5 type  1   force =     0.00069100    0.00039267    0.00518215
     atom    6 type  1   force =    -0.00107644   -0.00062839   -0.00313759
     atom    7 type  1   force =     0.00003013    0.00003717   -0.00003028
     atom    8 type  1   force =    -0.00028959    0.00016709    0.00004188
     atom    9 type  1   force =     0.00001575   -0.00003792    0.00457201
     atom   10 type  1   force =     0.00075491   -0.00042052   -0.00494739
     atom   11 type  1   force =     0.00001685    0.00001512    0.00044812
     atom   12 type  1   force =     0.00012714    0.00007543   -0.00056849
     atom   13 type  1   force =     0.00003774    0.00002113    0.00458116
     atom   14 type  1   force =    -0.00064445   -0.00038084   -0.00477290
     atom   15 type  1   force =    -0.00004846   -0.00002092   -0.00002628
     atom   16 type  1   force =     0.00024836   -0.00016072   -0.00049188
     atom   17 type  1   force =    -0.00001039   -0.00039843    0.00435036
     atom   18 type  1   force =     0.00105985   -0.00063629   -0.00314006
     atom   19 type  1   force =    -0.00002084   -0.00000834   -0.00161925
     atom   20 type  1   force =     0.00029065    0.00017805    0.00004184
     atom   21 type  1   force =    -0.00034556    0.00019433    0.00435047
     atom   22 type  1   force =    -0.00001484    0.00124947   -0.00313719
     atom   23 type  1   force =    -0.00003485   -0.00003091   -0.00002924
     atom   24 type  1   force =    -0.00000485    0.00028818   -0.00049060
     atom   25 type  1   force =    -0.00000655   -0.00078303    0.00518899
     atom   26 type  1   force =     0.00064416   -0.00036273   -0.00477236
     atom   27 type  1   force =     0.00000530   -0.00000643    0.00041381
     atom   28 type  1   force =    -0.00023817   -0.00014860   -0.00049513
     atom   29 type  1   force =    -0.00068085    0.00037925    0.00518517
     atom   30 type  1   force =     0.00001565    0.00072870   -0.00477547
     atom   31 type  1   force =    -0.00000972    0.00003216   -0.00002164
     atom   32 type  1   force =     0.00001240   -0.00013875   -0.00056236
     atom   33 type  1   force =     0.00032858    0.00019652    0.00434328
     atom   34 type  1   force =    -0.00074076   -0.00041092   -0.00494815
     atom   35 type  1   force =     0.00001772   -0.00001703   -0.00002665
     atom   36 type  1   force =    -0.00012226    0.00008709   -0.00056328
     atom   37 type  2   force =    -0.00000963    0.00000877    0.00023406

     Total force =     0.019693     Total SCF correction =     0.002295
     SCF correction compared to forces is large: reduce conv_thr to get better values
 !ASE

     Writing output data file calc.save

     General routines

     Parallel routines

   This run was terminated on:  19:26:29  10Mar2017

   JOB DONE.