     Program PWSCF v.5.1rc2 (svn rev. ) starts on 21Feb2018 at  3:13:33

     Current dimensions of program PWSCF are:
     Max number of different atomic species (ntypx) = 10
     Max number of k-points (npk) =  40000
     Max angular momentum in pseudopotentials (lmaxx) =  3
     Presently no symmetry can be used with electric field

     IMPORTANT: XC functional enforced from input :
     Exchange-correlation      = RPBE ( 1  4 28  4 0)
     Any further DFT definition will be discarded
     Please, verify this is what you really want

     Subspace diagonalization in iterative solution of the eigenvalue problem:
     a serial algorithm will be used

     Found symmetry operation: I + ( -0.0000  0.3333  0.0000)
     This is a supercell, fractional translations are disabled

     Generating pointlists ...
     new r_m :   0.4125 (alat units)  0.7795 (a.u.) for type    1

     bravais-lattice index     =            0
     lattice parameter (alat)  =       1.8897  a.u.
     unit-cell volume          =   10312.9744 (a.u.)^3
     number of atoms/cell      =           36
     number of atomic types    =            1
     number of electrons       =       324.00
     number of Kohn-Sham states=          262
     kinetic-energy cutoff     =      44.0992  Ry
     charge density cutoff     =     440.9919  Ry
     convergence threshold     =      7.3E-07
     mixing beta               =       0.1000
     number of iterations used =           10  plain     mixing
     Exchange-correlation      = RPBE ( 1  4 28  4 0)
     nstep                     =           50

     celldm(1)=   1.889726  celldm(2)=   0.000000  celldm(3)=   0.000000
     celldm(4)=   0.000000  celldm(5)=   0.000000  celldm(6)=   0.000000

     crystal axes: (cart. coord. in units of alat)
               a(1) = (  13.134537   0.000000   0.000000 )
               a(2) = (  -4.378179   6.191680   0.000000 )
               a(3) = (   0.000000   0.000000  18.791614 )

     reciprocal axes: (cart. coord. in units 2 pi/alat)
               b(1) = (  0.076135  0.053836  0.000000 )
               b(2) = (  0.000000  0.161507  0.000000 )
               b(3) = (  0.000000  0.000000  0.053215 )

     PseudoPot. # 1 for Co read from file:
     /home/alatimer/bin/psp/esp_psp_w_gbrvRu/Co.UPF
     MD5 check sum: f36dda9fe147c5f42efc2a4f7ec0da3d
     Pseudo is Ultrasoft + core correction, Zval =  9.0
     Generated by new atomic code, or converted to UPF format
     Using radial grid of  937 points,  3 beta functions with:
                l(1) =   1
                l(2) =   2
                l(3) =   2
     Q(r) pseudized with  8 coefficients,  rinner =    1.000   1.000   1.000
                                                       1.000   1.000

     atomic species   valence    mass     pseudopotential
        Co1            9.00    58.93320     Co( 1.00)

     Starting magnetic structure
     atomic species   magnetization
        Co1          0.444

     No symmetry found

   Cartesian axes

     site n.     atom                  positions (alat units)
         1           Co1 tau(   1) = (   0.0000000   0.0000000   7.5000000  )
         2           Co1 tau(   2) = (   2.1890894   0.0000000   8.7638714  )
         3           Co1 tau(   3) = (   0.0000000   0.0000000  10.0277427  )
         4           Co1 tau(   4) = (   2.1890894   0.0000000  11.2916141  )
         5           Co1 tau(   5) = (  -1.4593930   2.0638933   7.5000000  )
         6           Co1 tau(   6) = (   0.7296965   2.0638933   8.7638714  )
         7           Co1 tau(   7) = (  -1.4593930   2.0638933  10.0277427  )
         8           Co1 tau(   8) = (   0.7296965   2.0638933  11.2916141  )
         9           Co1 tau(   9) = (  -2.9187859   4.1277866   7.5000000  )
        10           Co1 tau(  10) = (  -0.7296965   4.1277866   8.7638714  )
        11           Co1 tau(  11) = (  -2.9187859   4.1277866  10.0277427  )
        12           Co1 tau(  12) = (  -0.7296965   4.1277866  11.2916141  )
        13           Co1 tau(  13) = (   4.3781789   0.0000000   7.5000000  )
        14           Co1 tau(  14) = (   6.5672683   0.0000000   8.7638714  )
        15           Co1 tau(  15) = (   4.3781789   0.0000000  10.0277427  )
        16           Co1 tau(  16) = (   6.5672683   0.0000000  11.2916141  )
        17           Co1 tau(  17) = (   2.9187859   2.0638933   7.5000000  )
        18           Co1 tau(  18) = (   5.1078753   2.0638933   8.7638714  )
        19           Co1 tau(  19) = (   2.9187859   2.0638933  10.0277427  )
        20           Co1 tau(  20) = (   5.1078753   2.0638933  11.2916141  )
        21           Co1 tau(  21) = (   1.4593930   4.1277866   7.5000000  )
        22           Co1 tau(  22) = (   3.6484824   4.1277866   8.7638714  )
        23           Co1 tau(  23) = (   1.4593930   4.1277866  10.0277427  )
        24           Co1 tau(  24) = (   3.6484824   4.1277866  11.2916141  )
        25           Co1 tau(  25) = (   8.7563577   0.0000000   7.5000000  )
        26           Co1 tau(  26) = (  10.9454471   0.0000000   8.7638714  )
        27           Co1 tau(  27) = (   8.7563577   0.0000000  10.0277427  )
        28           Co1 tau(  28) = (  10.9454471   0.0000000  11.2916141  )
        29           Co1 tau(  29) = (   7.2969648   2.0638933   7.5000000  )
        30           Co1 tau(  30) = (   9.4860542   2.0638933   8.7638714  )
        31           Co1 tau(  31) = (   7.2969648   2.0638933  10.0277427  )
        32           Co1 tau(  32) = (   9.4860542   2.0638933  11.2916141  )
        33           Co1 tau(  33) = (   5.8375718   4.1277866   7.5000000  )
        34           Co1 tau(  34) = (   8.0266612   4.1277866   8.7638714  )
        35           Co1 tau(  35) = (   5.8375718   4.1277866  10.0277427  )
        36           Co1 tau(  36) = (   8.0266612   4.1277866  11.2916141  )

     number of k points=    10  Fermi-Dirac smearing, width (Ry)=  0.0073
                       cart. coord. in units 2pi/alat
        k(    1) = (   0.0000000   0.0000000   0.0000000), wk =   0.1111111
        k(    2) = (   0.0000000   0.0538357   0.0000000), wk =   0.2222222
        k(    3) = (   0.0253784   0.0179452   0.0000000), wk =   0.2222222
        k(    4) = (   0.0253784   0.0717809   0.0000000), wk =   0.2222222
        k(    5) = (   0.0253784  -0.0358905   0.0000000), wk =   0.2222222
        k(    6) = (   0.0000000   0.0000000   0.0000000), wk =   0.1111111
        k(    7) = (   0.0000000   0.0538357   0.0000000), wk =   0.2222222
        k(    8) = (   0.0253784   0.0179452   0.0000000), wk =   0.2222222
        k(    9) = (   0.0253784   0.0717809   0.0000000), wk =   0.2222222
        k(   10) = (   0.0253784  -0.0358905   0.0000000), wk =   0.2222222

     Largest allocated arrays     est. size (Mb)     dimensions
     Largest temporary arrays     est. size (Mb)     dimensions

     Initial potential from superposition of free atoms
     Check: negative starting charge=(component1):   -0.002805
     Check: negative starting charge=(component2):   -0.001079

     starting charge  323.99032, renormalised to  324.00000

     negative rho (up, down):  2.805E-03 1.079E-03

     Adding external electric field

     Computed dipole along edir(3) :
        Dipole                0.0000 Ry au,          0.0000 Debye
        Dipole field          0.0000 Ry au

        Potential amp.       -0.0000 Ry
        Total length         34.6232 bohr

[...]

     Starting wfc are  324 randomized atomic wfcs

     Self-consistent Calculation

     iteration #  1     ecut=    44.10 Ry     beta=0.10
     Davidson diagonalization with overlap
     ethr =  1.00E-02,  avg # of iterations =  6.9

[...]

     Magnetic moment per site:
     atom:    1    charge:    3.1934    magn:    1.4050    constr:    0.0000
     atom:    2    charge:    3.2417    magn:    1.3597    constr:    0.0000
     atom:    3    charge:    3.2417    magn:    1.3597    constr:    0.0000
     atom:    4    charge:    3.1934    magn:    1.4050    constr:    0.0000
     atom:    5    charge:    3.1934    magn:    1.4050    constr:    0.0000
     atom:    6    charge:    3.2417    magn:    1.3597    constr:    0.0000
     atom:    7    charge:    3.2417    magn:    1.3597    constr:    0.0000
     atom:    8    charge:    3.1934    magn:    1.4050    constr:    0.0000
     atom:    9    charge:    3.1934    magn:    1.4050    constr:    0.0000
     atom:   10    charge:    3.2417    magn:    1.3597    constr:    0.0000
     atom:   11    charge:    3.2417    magn:    1.3597    constr:    0.0000
     atom:   12    charge:    3.1934    magn:    1.4050    constr:    0.0000
     atom:   13    charge:    3.1934    magn:    1.4050    constr:    0.0000
     atom:   14    charge:    3.2417    magn:    1.3597    constr:    0.0000
     atom:   15    charge:    3.2417    magn:    1.3597    constr:    0.0000
     atom:   16    charge:    3.1934    magn:    1.4050    constr:    0.0000
     atom:   17    charge:    3.1934    magn:    1.4050    constr:    0.0000
     atom:   18    charge:    3.2417    magn:    1.3597    constr:    0.0000
     atom:   19    charge:    3.2417    magn:    1.3597    constr:    0.0000
     atom:   20    charge:    3.1934    magn:    1.4050    constr:    0.0000
     atom:   21    charge:    3.1934    magn:    1.4050    constr:    0.0000
     atom:   22    charge:    3.2417    magn:    1.3597    constr:    0.0000
     atom:   23    charge:    3.2417    magn:    1.3597    constr:    0.0000
     atom:   24    charge:    3.1934    magn:    1.4050    constr:    0.0000
     atom:   25    charge:    3.1934    magn:    1.4050    constr:    0.0000
     atom:   26    charge:    3.2417    magn:    1.3597    constr:    0.0000
     atom:   27    charge:    3.2417    magn:    1.3597    constr:    0.0000
     atom:   28    charge:    3.1934    magn:    1.4050    constr:    0.0000
     atom:   29    charge:    3.1934    magn:    1.4050    constr:    0.0000
     atom:   30    charge:    3.2417    magn:    1.3597    constr:    0.0000
     atom:   31    charge:    3.2417    magn:    1.3597    constr:    0.0000
     atom:   32    charge:    3.1934    magn:    1.4050    constr:    0.0000
     atom:   33    charge:    3.1934    magn:    1.4050    constr:    0.0000
     atom:   34    charge:    3.2417    magn:    1.3597    constr:    0.0000
     atom:   35    charge:    3.2417    magn:    1.3597    constr:    0.0000
     atom:   36    charge:    3.1934    magn:    1.4050    constr:    0.0000

     total energy              =   -2880.84947766 Ry
     Harris-Foulkes estimate   =   -2883.50312704 Ry
     estimated scf accuracy    <      18.86558479 Ry

     total magnetization       =    74.28 Bohr mag/cell
     absolute magnetization    =    74.30 Bohr mag/cell

[...]

     End of self-consistent calculation

 ------ SPIN UP ------------

          k = 0.0000 0.0000 0.0000 ( 50983 PWs)   bands (ev):

    -7.1461  -5.8856  -5.8856  -4.8695  -4.8695  -4.6557  -4.2003  -4.2003
    -4.1903  -4.1903  -4.1902  -4.1902  -3.9091  -3.9091  -3.9021  -3.9021
    -3.8830  -3.6434  -3.6434  -3.4348  -3.4348  -3.4348  -3.4348  -3.4295
    -3.3388  -3.3388  -3.2834  -3.2834  -3.2626  -3.2625  -3.2625  -3.2625
    -3.1827  -3.1827  -3.1522  -3.1522  -3.1522  -3.1522  -3.1511  -3.0545
    -3.0545  -2.8614  -2.8614  -2.8119  -2.8119  -2.8118  -2.8118  -2.7483
    -2.7483  -2.7483  -2.7483  -2.6897  -2.6535  -2.6535  -2.5373  -2.4873
    -2.4873  -2.4070  -2.4070  -2.4070  -2.4070  -2.3803  -2.3803  -2.3766
    -2.3766  -2.3411  -2.3234  -2.3234  -2.3233  -2.3233  -2.3080  -2.3080
    -2.2447  -2.2447  -2.1638  -2.1638  -2.1638  -2.1638  -2.0804  -2.0486
    -2.0486  -2.0485  -2.0485  -2.0453  -2.0086  -2.0086  -2.0085  -2.0085
    -2.0013  -2.0013  -1.9707  -1.9707  -1.9271  -1.8796  -1.8796  -1.8578
    -1.7998  -1.7998  -1.7181  -1.7181  -1.6673  -1.6673  -1.6673  -1.6673
    -1.6390  -1.6390  -1.4796  -1.4796  -1.4794  -1.4794  -1.4793  -1.4793
    -1.4023  -1.4023  -1.4022  -1.4022  -1.3707  -1.3707  -1.3527  -1.3526
    -1.3157  -1.2764  -1.2534  -1.2475  -1.2475  -1.2469  -1.2469  -1.2168
    -1.1999  -1.1999  -1.1814  -1.1814  -1.1380  -1.1380  -1.1299  -1.1299
    -1.1299  -1.1299  -1.1191  -1.1191  -1.1190  -1.1190  -1.1033  -1.1033
    -1.0507  -0.9804  -0.9599  -0.9599  -0.9599  -0.9599  -0.9324  -0.9324
    -0.8498  -0.8498  -0.8386  -0.8235  -0.8235  -0.7206  -0.7206  -0.7206
    -0.7206  -0.7162  -0.7162  -0.7162  -0.7162  -0.7019  -0.7018  -0.6489
    -0.6489  -0.6274  -0.6274  -0.6269  -0.5734  -0.5734  -0.5734  -0.5734
    -0.5698  -0.5064  -0.5064  -0.5063  -0.5063  -0.4593  -0.4593  -0.4219
    -0.4219  -0.3966  -0.3966  -0.3301  -0.3301  -0.3156  -0.3156  -0.2127
    -0.2127  -0.2110   0.2141   0.3818   0.3818   0.9609   0.9609   1.5241
     1.5241   1.5242   1.5242   2.4419   2.4419   2.6814   2.6814   2.8215
     2.9987   2.9987   2.9987   2.9987   3.2160   3.2160   3.9485   3.9485
     3.9485   3.9485   4.1246   4.4927   5.0144   5.0144   5.1072   5.3559
     5.4183   5.4183   5.5653   5.5653   5.5653   5.5653   5.8080   5.8080
     6.1794   6.1794   6.3839   6.3839   6.3840   6.3840   6.6115   6.6115
     6.6493   6.6493   7.1922   7.1922   7.5056   7.5056   7.7157   7.7506
     7.7506   7.9116   7.9521   7.9522   7.9522   7.9523   7.9783   7.9783
     7.9783   7.9783   8.0365   8.3614   8.3614   8.3614

[...]

 ------ SPIN DOWN ----------

[...]

     the Fermi energy is     0.5693 ev

!    total energy              =   -2884.41426295 Ry
     Harris-Foulkes estimate   =   -2884.41425702 Ry
     estimated scf accuracy    <       0.00000029 Ry

     The total energy is the sum of the following terms:

     one-electron contribution =  -14583.68898981 Ry
     hartree contribution      =    7603.74590024 Ry
     xc contribution           =   -1326.50964604 Ry
     ewald contribution        =    5422.16673829 Ry
     electric field correction =       0.00000000 Ry
     smearing contrib. (-TS)   =      -0.12826562 Ry

[...]

     convergence has been achieved in  56 iterations

     Forces acting on atoms (Ry/au):

     negative rho (up, down):  3.733E-03 1.363E-02
     atom    1 type  1   force =     0.00003208    0.00000165    0.03215332
     atom    2 type  1   force =     0.00002553    0.00002986   -0.01373415
     atom    3 type  1   force =     0.00000986    0.00000169    0.01375242
     atom    4 type  1   force =     0.00001301    0.00000530   -0.03216861
     atom    5 type  1   force =    -0.00000176    0.00002202    0.03213317
     atom    6 type  1   force =     0.00004684    0.00000252   -0.01372361
     atom    7 type  1   force =     0.00002401    0.00000793    0.01376150
     atom    8 type  1   force =     0.00000167    0.00000966   -0.03216029
     atom    9 type  1   force =     0.00001647    0.00001027    0.03216765
     atom   10 type  1   force =     0.00000235    0.00002088   -0.01372784
     atom   11 type  1   force =     0.00000477    0.00001649    0.01373379
     atom   12 type  1   force =     0.00001275    0.00000460   -0.03216148
     atom   13 type  1   force =     0.00000445    0.00001777    0.03216598
     atom   14 type  1   force =    -0.00000186    0.00000453   -0.01372503
     atom   15 type  1   force =     0.00000006    0.00001402    0.01372230
     atom   16 type  1   force =     0.00001363   -0.00002213   -0.03216779
     atom   17 type  1   force =     0.00001214    0.00000471    0.03221195
     atom   18 type  1   force =    -0.00002027    0.00000018   -0.01371944
     atom   19 type  1   force =     0.00001620    0.00001180    0.01369439
     atom   20 type  1   force =    -0.00000316    0.00001509   -0.03220392
     atom   21 type  1   force =     0.00002213    0.00000570    0.03216330
     atom   22 type  1   force =    -0.00000288   -0.00002279   -0.01370925
     atom   23 type  1   force =     0.00002808    0.00000753    0.01374265
     atom   24 type  1   force =    -0.00000522    0.00001034   -0.03220359
     atom   25 type  1   force =    -0.00003033   -0.00001888    0.03214355
     atom   26 type  1   force =    -0.00001854   -0.00001628   -0.01371683
     atom   27 type  1   force =    -0.00003489   -0.00003980    0.01374119
     atom   28 type  1   force =     0.00000316   -0.00001955   -0.03216744
     atom   29 type  1   force =    -0.00002476   -0.00002649    0.03214870
     atom   30 type  1   force =    -0.00001793    0.00000047   -0.01373753
     atom   31 type  1   force =    -0.00002954    0.00000136    0.01373035
     atom   32 type  1   force =    -0.00001365    0.00000271   -0.03215456
     atom   33 type  1   force =    -0.00003434   -0.00001949    0.03215196
     atom   34 type  1   force =    -0.00001095   -0.00001711   -0.01369979
     atom   35 type  1   force =    -0.00002066   -0.00002125    0.01373956
     atom   36 type  1   force =    -0.00001847   -0.00000530   -0.03217659

     Total force =     0.148382     Total SCF correction =     0.001179
 !ASE

     Writing output data file calc.save
     Check: negative starting charge=(component1):   -0.003884
     NEW-OLD atomic charge density approx. for the potential
     Check: negative starting charge=(component1):   -0.004302

[...]

     iteration #  1     ecut=    44.10 Ry     beta=0.10
     Davidson diagonalization with overlap
     c_bands:  1 eigenvalues not converged
     c_bands:  2 eigenvalues not converged
     ethr =  2.74E-10,  avg # of iterations = 11.2

[...]

     Writing output data file calc.save
     Check: negative starting charge=(component1):   -0.004311
     NEW-OLD atomic charge density approx. for the potential
     Check: negative starting charge=(component1):   -0.004266

[...]

     Self-consistent Calculation

[...]

     total energy              =   -2884.45857613 Ry
     Harris-Foulkes estimate   =   -2884.45856157 Ry
     estimated scf accuracy    <       0.00000447 Ry

[...]

     iteration # 18     ecut=    44.10 Ry     beta=0.10
     Davidson diagonalization with overlap
     ethr =  1.04E-09,  avg # of iterations =  1.0

     negative rho (up, down):  4.022E-03 1.318E-02

[...]

     Adding external electric field

     Computed dipole along edir(3) :
        Dipole               -0.0415 Ry au,         -0.1056 Debye
        Dipole field         -0.0001 Ry au

        Potential amp.        0.0035 Ry
        Total length         34.6232 bohr

     Magnetic moment per site:
     atom:    1    charge:    3.2196    magn:    1.0128    constr:    0.0000
     atom:    2    charge:    3.2012    magn:    0.9440    constr:    0.0000
     atom:    3    charge:    3.1998    magn:    0.9262    constr:    0.0000
     atom:    4    charge:    2.9957    magn:    0.9398    constr:    0.0000
     atom:    5    charge:    3.2196    magn:    1.0128    constr:    0.0000
     atom:    6    charge:    3.2012    magn:    0.9440    constr:    0.0000
     atom:    7    charge:    3.1998    magn:    0.9262    constr:    0.0000
     atom:    8    charge:    2.9964    magn:    0.9401    constr:    0.0000
     atom:    9    charge:    3.2196    magn:    1.0128    constr:    0.0000
     atom:   10    charge:    3.2012    magn:    0.9440    constr:    0.0000
     atom:   11    charge:    3.1998    magn:    0.9262    constr:    0.0000
     atom:   12    charge:    2.9959    magn:    0.9399    constr:    0.0000
     atom:   13    charge:    3.2196    magn:    1.0128    constr:    0.0000
     atom:   14    charge:    3.2011    magn:    0.9440    constr:    0.0000
     atom:   15    charge:    3.1998    magn:    0.9263    constr:    0.0000
     atom:   16    charge:    2.9952    magn:    0.9397    constr:    0.0000
     atom:   17    charge:    3.2196    magn:    1.0128    constr:    0.0000
     atom:   18    charge:    3.2011    magn:    0.9439    constr:    0.0000
     atom:   19    charge:    3.1998    magn:    0.9262    constr:    0.0000
     atom:   20    charge:    2.9953    magn:    0.9397    constr:    0.0000
     atom:   21    charge:    3.2196    magn:    1.0128    constr:    0.0000
     atom:   22    charge:    3.2011    magn:    0.9439    constr:    0.0000
     atom:   23    charge:    3.1998    magn:    0.9263    constr:    0.0000
     atom:   24    charge:    2.9953    magn:    0.9397    constr:    0.0000
     atom:   25    charge:    3.2196    magn:    1.0128    constr:    0.0000
     atom:   26    charge:    3.2012    magn:    0.9439    constr:    0.0000
     atom:   27    charge:    3.1998    magn:    0.9262    constr:    0.0000
     atom:   28    charge:    2.9957    magn:    0.9399    constr:    0.0000
     atom:   29    charge:    3.2197    magn:    1.0127    constr:    0.0000
     atom:   30    charge:    3.2012    magn:    0.9440    constr:    0.0000
     atom:   31    charge:    3.1998    magn:    0.9263    constr:    0.0000
     atom:   32    charge:    2.9957    magn:    0.9398    constr:    0.0000
     atom:   33    charge:    3.2196    magn:    1.0128    constr:    0.0000
     atom:   34    charge:    3.2012    magn:    0.9440    constr:    0.0000
     atom:   35    charge:    3.1998    magn:    0.9262    constr:    0.0000
     atom:   36    charge:    2.9957    magn:    0.9398    constr:    0.0000

     End of self-consistent calculation

 ------ SPIN UP ------------

[...]

 ------ SPIN DOWN ----------

[...]

          k = 0.0254-0.0359 0.0000 ( 51064 PWs)   bands (ev):

    -7.0141  -6.1359  -5.7309  -5.7306  -4.9518  -4.9515  -4.2896  -3.6262
    -3.6251  -3.4776  -3.4774  -3.1583  -3.1583  -3.1389  -3.1386  -3.0181
    -2.8140  -2.8138  -2.6762  -2.6761  -2.6621  -2.6621  -2.6517  -2.4791
    -2.4791  -2.3183  -2.2817  -2.2558  -2.2555  -2.1538  -2.0990  -2.0826
    -2.0825  -2.0348  -2.0253  -2.0252  -1.9304  -1.8780  -1.8108  -1.6992
    -1.6947  -1.6549  -1.6546  -1.6115  -1.6113  -1.5774  -1.5769  -1.5381
    -1.5378  -1.5223  -1.4786  -1.2800  -1.2439  -1.2355  -1.2352  -1.1103
    -1.1101  -1.0933  -1.0563  -1.0513  -1.0510  -1.0442  -1.0188  -1.0186
    -0.9722  -0.9382  -0.9381  -0.9278  -0.9277  -0.9212  -0.9211  -0.8638
    -0.8637  -0.7771  -0.7769  -0.6945  -0.6407  -0.6405  -0.6088  -0.5729
    -0.5728  -0.4828  -0.4768  -0.4758  -0.4756  -0.4538  -0.4536  -0.3908
    -0.3907  -0.3703  -0.3200  -0.3101  -0.3100  -0.2472  -0.2471  -0.2333
    -0.1896  -0.1862  -0.1682  -0.1681  -0.1202  -0.1202  -0.0789  -0.0787
    -0.0486  -0.0486  -0.0066  -0.0065   0.0509   0.0511   0.1011   0.1013
     0.1052   0.1485   0.1487   0.2058   0.2508   0.2815   0.3036   0.3321
     0.3323   0.3982   0.4009   0.4011   0.4118   0.4119   0.5117   0.5118
     0.5125   0.5126   0.5725   0.5727   0.5824   0.6350   0.6816   0.6816
     0.6918   0.6919   0.7450   0.8266   0.8266   0.8545   0.8868   0.9767
     0.9984   0.9987   1.0027   1.0073   1.0100   1.0101   1.0134   1.0402
     1.0405   1.0406   1.0567   1.1541   1.1542   1.1614   1.1615   1.1627
     1.1629   1.1898   1.1919   1.2591   1.2960   1.3021   1.3050   1.3427
     1.3427   1.3486   1.3487   1.3569   1.3570   1.3785   1.3787   1.4078
     1.4278   1.4281   1.4282   1.4909   1.5847   1.5986   1.5986   1.5990
     1.5990   1.6101   1.6281   1.6282   1.6349   1.6796   1.7197   1.9299
     1.9300   2.0355   2.0356   2.1734   2.2219   2.2370   2.2372   2.3264
     2.4228   2.4230   3.0914   3.0916   3.2665   3.2667   3.4963   3.4964
     3.6838   3.7468   3.8509   3.8509   3.8955   4.1533   4.1535   4.2090
     4.2094   4.3227   4.3990   4.7889   4.7889   5.1708   5.3170   5.3173
     5.4263   5.4918   5.5985   5.5986   5.6230   5.6231   5.6287   6.1661
     6.1665   6.3434   6.3734   6.4364   6.4628   6.4629   6.8579   6.8581
     6.8584   7.0667   7.0669   7.0962   7.3266   7.3266   7.6549   7.6550
     7.6621   7.6621   7.7077   7.7079   7.9574   8.3511   8.3512   8.3515
     8.3516   8.4233   8.5709   8.5710   8.6354   8.7672

     the Fermi energy is     0.5631 ev

!    total energy              =   -2884.45867108 Ry
     Harris-Foulkes estimate   =   -2884.45857630 Ry
     estimated scf accuracy    <       0.00000068 Ry

     The total energy is the sum of the following terms:

     one-electron contribution =  -14891.11514758 Ry
     hartree contribution      =    7757.24188919 Ry
     xc contribution           =   -1326.96237028 Ry
     ewald contribution        =    5576.49903378 Ry
     electric field correction =       0.00000210 Ry
     smearing contrib. (-TS)   =      -0.12207829 Ry

     total magnetization       =    63.49 Bohr mag/cell
     absolute magnetization    =    69.96 Bohr mag/cell

     convergence has been achieved in  18 iterations

     Forces acting on atoms (Ry/au):

     negative rho (up, down):  4.022E-03 1.318E-02
     atom    1 type  1   force =     0.00000640   -0.00000836    0.03003286
     atom    2 type  1   force =     0.00005717    0.00002562   -0.02948531
     atom    3 type  1   force =     0.00001764    0.00000786   -0.00000511
     atom    4 type  1   force =     0.00006311    0.00001196   -0.00057900
     atom    5 type  1   force =    -0.00000697    0.00000178    0.03003402
     atom    6 type  1   force =     0.00005154    0.00002569   -0.02945543
     atom    7 type  1   force =     0.00001807    0.00003329   -0.00000184
     atom    8 type  1   force =     0.00005353    0.00005698   -0.00063577
     atom    9 type  1   force =     0.00000779    0.00001058    0.03003770
     atom   10 type  1   force =     0.00004103    0.00005469   -0.02946763
     atom   11 type  1   force =    -0.00000238   -0.00000868   -0.00001907
     atom   12 type  1   force =     0.00005168    0.00004619   -0.00060680
     atom   13 type  1   force =     0.00002179    0.00002012    0.03005263
     atom   14 type  1   force =    -0.00002127   -0.00000732   -0.02951721
     atom   15 type  1   force =     0.00000745   -0.00002792   -0.00002212
     atom   16 type  1   force =    -0.00000658    0.00002761   -0.00052287
     atom   17 type  1   force =     0.00003894    0.00000107    0.03005824
     atom   18 type  1   force =    -0.00001567   -0.00002177   -0.02951672
     atom   19 type  1   force =    -0.00006236   -0.00000320   -0.00000911
     atom   20 type  1   force =     0.00004393   -0.00002405   -0.00051548
     atom   21 type  1   force =     0.00001941    0.00003737    0.03005892
     atom   22 type  1   force =    -0.00000852   -0.00000163   -0.02951795
     atom   23 type  1   force =    -0.00004321   -0.00003265   -0.00000226
     atom   24 type  1   force =    -0.00000293    0.00001159   -0.00050256
     atom   25 type  1   force =    -0.00002322   -0.00002699    0.03005109
     atom   26 type  1   force =    -0.00004455   -0.00002562   -0.02948800
     atom   27 type  1   force =     0.00000323    0.00005404    0.00001235
     atom   28 type  1   force =    -0.00007377   -0.00004684   -0.00054462
     atom   29 type  1   force =    -0.00002142   -0.00003645    0.03007770
     atom   30 type  1   force =    -0.00003528   -0.00003259   -0.02947474
     atom   31 type  1   force =     0.00002998    0.00001437    0.00002615
     atom   32 type  1   force =    -0.00008873   -0.00003486   -0.00057717
     atom   33 type  1   force =    -0.00003861   -0.00000261    0.03005533
     atom   34 type  1   force =    -0.00002993   -0.00001720   -0.02947219
     atom   35 type  1   force =     0.00004475   -0.00000505    0.00001941
     atom   36 type  1   force =    -0.00005205   -0.00007703   -0.00057745

     Total force =     0.126319     Total SCF correction =     0.001703
 !ASE

     Writing output data file calc.save

     General routines

     Parallel routines

   This run was terminated on:   7:53:36  21Feb2018

   JOB DONE.