     Program PWSCF v.5.1rc2 (svn rev. ) starts on 10Mar2017 at 14:54:58

     Current dimensions of program PWSCF are:
     Max number of different atomic species (ntypx) = 10
     Max number of k-points (npk) =  40000
     Max angular momentum in pseudopotentials (lmaxx) =  3
     Presently no symmetry can be used with electric field

     IMPORTANT: XC functional enforced from input :
     Exchange-correlation      = RPBE ( 1  4 28  4 0)
     Any further DFT definition will be discarded
     Please, verify this is what you really want

               file Ni.UPF: wavefunction(s)  3D renormalized

     Subspace diagonalization in iterative solution of the eigenvalue problem:
     a serial algorithm will be used

     Generating pointlists ...
     new r_m :   0.4125 (alat units)  0.7795 (a.u.) for type    1
     new r_m :   0.4125 (alat units)  0.7795 (a.u.) for type    2

     bravais-lattice index     =            0
     lattice parameter (alat)  =       1.8897  a.u.
     unit-cell volume          =    7046.4111 (a.u.)^3
     number of atoms/cell      =           37
     number of atomic types    =            2
     number of electrons       =       364.00
     number of Kohn-Sham states=          282
     kinetic-energy cutoff     =      44.0992  Ry
     charge density cutoff     =     440.9919  Ry
     convergence threshold     =      7.3E-07
     mixing beta               =       0.1000
     number of iterations used =           10  plain     mixing
     Exchange-correlation      = RPBE ( 1  4 28  4 0)
     nstep                     =           50

     celldm(1)=   1.889726  celldm(2)=   0.000000  celldm(3)=   0.000000
     celldm(4)=   0.000000  celldm(5)=   0.000000  celldm(6)=   0.000000

     crystal axes: (cart. coord. in units of alat)
               a(1) = (   7.548011   0.000000   0.000000 )
               a(2) = (  -3.774005   6.536769   0.000000 )
               a(3) = (   0.000000   0.000000  21.162925 )

     reciprocal axes: (cart. coord. in units 2 pi/alat)
               b(1) = (  0.132485  0.076490  0.000000 )
               b(2) = (  0.000000  0.152981  0.000000 )
               b(3) = (  0.000000  0.000000  0.047252 )

     PseudoPot. # 1 for Ni read from file:
     /home/alatimer/bin/psp/esp_psp_w_gbrvRu/Ni.UPF
     MD5 check sum: 8b2449ee0060d9c33484ccd47bb60870
     Pseudo is Ultrasoft + core correction, Zval = 10.0
     Generated using "atomic" code by A. Dal Corso  v.5.0.2 svn rev. 9415
     Using radial grid of 1195 points,  6 beta functions with:
                l(1) =   0
                l(2) =   0
                l(3) =   1
                l(4) =   1
                l(5) =   2
                l(6) =   2
     Q(r) pseudized with 0 coefficients

     PseudoPot. # 2 for  C read from file:
     /home/alatimer/bin/psp/esp_psp_w_gbrvRu/C.UPF
     MD5 check sum: ab446d787031eba755f1d5ee46644bb0
     Pseudo is Ultrasoft + core correction, Zval =  4.0
     Generated using "atomic" code by A. Dal Corso  v.5.0.2 svn rev. 9415
     Using radial grid of 1073 points,  4 beta functions with:
                l(1) =   0
                l(2) =   0
                l(3) =   1
                l(4) =   1
     Q(r) pseudized with 0 coefficients

     atomic species   valence    mass     pseudopotential
        Ni1           10.00    58.69340     Ni( 1.00)
        C1             4.00    12.01100      C( 1.00)

     Starting magnetic structure
     atomic species   magnetization
        Ni1          0.300
        C1           0.750

     No symmetry found

   Cartesian axes

     site n.     atom                  positions (alat units)
         1           Ni1 tau(   1) = (   0.0000000   0.0000000   7.5000000  )
         2           Ni1 tau(   2) = (   1.2580018   0.7263077   9.5543084  )
         3           Ni1 tau(   3) = (   0.0000000   1.4526154  11.6086168  )
         4           Ni1 tau(   4) = (   1.2580018   2.1789231  13.6629252  )
         5           Ni1 tau(   5) = (  -1.2580018   2.1789231   7.5000000  )
         6           Ni1 tau(   6) = (   0.0000000   2.9052308   9.5543084  )
         7           Ni1 tau(   7) = (  -1.2580018   3.6315385  11.6086168  )
         8           Ni1 tau(   8) = (  -0.0000000   4.3578462  13.6629252  )
         9           Ni1 tau(   9) = (  -2.5160037   4.3578462   7.5000000  )
        10           Ni1 tau(  10) = (  -1.2580018   5.0841539   9.5543084  )
        11           Ni1 tau(  11) = (  -2.5160037   5.8104616  11.6086168  )
        12           Ni1 tau(  12) = (  -1.2580018   6.5367693  13.6629252  )
        13           Ni1 tau(  13) = (   2.5160037   0.0000000   7.5000000  )
        14           Ni1 tau(  14) = (   3.7740055   0.7263077   9.5543084  )
        15           Ni1 tau(  15) = (   2.5160037   1.4526154  11.6086168  )
        16           Ni1 tau(  16) = (   3.7740055   2.1789231  13.6629252  )
        17           Ni1 tau(  17) = (   1.2580018   2.1789231   7.5000000  )
        18           Ni1 tau(  18) = (   2.5160037   2.9052308   9.5543084  )
        19           Ni1 tau(  19) = (   1.2580018   3.6315385  11.6086168  )
        20           Ni1 tau(  20) = (   2.5160037   4.3578462  13.6629252  )
        21           Ni1 tau(  21) = (  -0.0000000   4.3578462   7.5000000  )
        22           Ni1 tau(  22) = (   1.2580018   5.0841539   9.5543084  )
        23           Ni1 tau(  23) = (  -0.0000000   5.8104616  11.6086168  )
        24           Ni1 tau(  24) = (   1.2580018   6.5367693  13.6629252  )
        25           Ni1 tau(  25) = (   5.0320073   0.0000000   7.5000000  )
        26           Ni1 tau(  26) = (   6.2900092   0.7263077   9.5543084  )
        27           Ni1 tau(  27) = (   5.0320073   1.4526154  11.6086168  )
        28           Ni1 tau(  28) = (   6.2900092   2.1789231  13.6629252  )
        29           Ni1 tau(  29) = (   3.7740055   2.1789231   7.5000000  )
        30           Ni1 tau(  30) = (   5.0320073   2.9052308   9.5543084  )
        31           Ni1 tau(  31) = (   3.7740055   3.6315385  11.6086168  )
        32           Ni1 tau(  32) = (   5.0320073   4.3578462  13.6629252  )
        33           Ni1 tau(  33) = (   2.5160037   4.3578462   7.5000000  )
        34           Ni1 tau(  34) = (   3.7740055   5.0841539   9.5543084  )
        35           Ni1 tau(  35) = (   2.5160037   5.8104616  11.6086168  )
        36           Ni1 tau(  36) = (   3.7740055   6.5367693  13.6629252  )
        37           C1  tau(  37) = (   2.5160037   2.9052308  14.8629252  )

     number of k points=    10  Fermi-Dirac smearing, width (Ry)=  0.0073
                       cart. coord. in units 2pi/alat
        k(    1) = (   0.0000000   0.0000000   0.0000000), wk =   0.1111111
        k(    2) = (   0.0000000   0.0509936   0.0000000), wk =   0.2222222
        k(    3) = (   0.0441617   0.0254968   0.0000000), wk =   0.2222222
        k(    4) = (   0.0441617   0.0764904   0.0000000), wk =   0.2222222
        k(    5) = (   0.0441617  -0.0254968   0.0000000), wk =   0.2222222
        k(    6) = (   0.0000000   0.0000000   0.0000000), wk =   0.1111111
        k(    7) = (   0.0000000   0.0509936   0.0000000), wk =   0.2222222
        k(    8) = (   0.0441617   0.0254968   0.0000000), wk =   0.2222222
        k(    9) = (   0.0441617   0.0764904   0.0000000), wk =   0.2222222
        k(   10) = (   0.0441617  -0.0254968   0.0000000), wk =   0.2222222

     Largest allocated arrays     est. size (Mb)     dimensions
     Largest temporary arrays     est. size (Mb)     dimensions

     Initial potential from superposition of free atoms
     Check: negative starting charge=(component1):   -0.000344
     Check: negative starting charge=(component2):   -0.000191

     starting charge  363.99092, renormalised to  364.00000

     negative rho (up, down):  3.444E-04 1.914E-04

     Adding external electric field

     Computed dipole along edir(3) :
        Dipole               -0.0005 Ry au,         -0.0012 Debye
        Dipole field         -0.0000 Ry au

        Potential amp.        0.0001 Ry
        Total length         38.9923 bohr

[...]

     Starting wfc are  328 randomized atomic wfcs

     Self-consistent Calculation

     iteration #  1     ecut=    44.10 Ry     beta=0.10
     Davidson diagonalization with overlap
     ethr =  1.00E-02,  avg # of iterations =  7.0

[...]

     Magnetic moment per site:
     atom:    1    charge:    3.9465    magn:    1.1287    constr:    0.0000
     atom:    2    charge:    3.9663    magn:    1.1131    constr:    0.0000
     atom:    3    charge:    3.9689    magn:    1.1098    constr:    0.0000
     atom:    4    charge:    3.9605    magn:    1.1116    constr:    0.0000
     atom:    5    charge:    3.9465    magn:    1.1287    constr:    0.0000
     atom:    6    charge:    3.9663    magn:    1.1132    constr:    0.0000
     atom:    7    charge:    3.9667    magn:    1.1126    constr:    0.0000
     atom:    8    charge:    3.9483    magn:    1.1277    constr:    0.0000
     atom:    9    charge:    3.9468    magn:    1.1282    constr:    0.0000
     atom:   10    charge:    3.9664    magn:    1.1132    constr:    0.0000
     atom:   11    charge:    3.9667    magn:    1.1126    constr:    0.0000
     atom:   12    charge:    3.9483    magn:    1.1277    constr:    0.0000
     atom:   13    charge:    3.9468    magn:    1.1282    constr:    0.0000
     atom:   14    charge:    3.9663    magn:    1.1132    constr:    0.0000
     atom:   15    charge:    3.9689    magn:    1.1112    constr:    0.0000
     atom:   16    charge:    3.9605    magn:    1.1116    constr:    0.0000
     atom:   17    charge:    3.9467    magn:    1.1282    constr:    0.0000
     atom:   18    charge:    3.9664    magn:    1.1128    constr:    0.0000
     atom:   19    charge:    3.9689    magn:    1.1112    constr:    0.0000
     atom:   20    charge:    3.9605    magn:    1.1116    constr:    0.0000
     atom:   21    charge:    3.9468    magn:    1.1283    constr:    0.0000
     atom:   22    charge:    3.9663    magn:    1.1132    constr:    0.0000
     atom:   23    charge:    3.9667    magn:    1.1126    constr:    0.0000
     atom:   24    charge:    3.9479    magn:    1.1278    constr:    0.0000
     atom:   25    charge:    3.9465    magn:    1.1287    constr:    0.0000
     atom:   26    charge:    3.9663    magn:    1.1122    constr:    0.0000
     atom:   27    charge:    3.9689    magn:    1.1099    constr:    0.0000
     atom:   28    charge:    3.9479    magn:    1.1278    constr:    0.0000
     atom:   29    charge:    3.9467    magn:    1.1282    constr:    0.0000
     atom:   30    charge:    3.9663    magn:    1.1131    constr:    0.0000
     atom:   31    charge:    3.9689    magn:    1.1112    constr:    0.0000
     atom:   32    charge:    3.9483    magn:    1.1277    constr:    0.0000
     atom:   33    charge:    3.9466    magn:    1.1282    constr:    0.0000
     atom:   34    charge:    3.9663    magn:    1.1132    constr:    0.0000
     atom:   35    charge:    3.9689    magn:    1.1098    constr:    0.0000
     atom:   36    charge:    3.9479    magn:    1.1279    constr:    0.0000
[...]
    -0.9095  -0.8926  -0.8875  -0.8875  -0.8700  -0.8582  -0.8582  -0.7251
    -0.7251  -0.5274  -0.4569  -0.4569  -0.4399  -0.4159  -0.4159  -0.4007
    -0.3486  -0.3486  -0.3322  -0.3210  -0.2608  -0.2608  -0.2475  -0.2347
    -0.2347  -0.2143  -0.2075  -0.1351  -0.0690  -0.0690  -0.0218  -0.0218
     0.0089   0.0089   0.0158   0.0158   0.0169   0.0331   0.0607   0.0607
     0.1184   0.1509   0.1580   0.1608   0.1609   0.1627   0.1627   0.1656
     0.1656   0.1758   0.1857   0.1857   0.2292   0.2292   0.2681   0.2681
     0.2713   0.2761   0.2761   0.3421   0.4015   0.4015   0.4481   0.5337
     0.5337   0.5693   0.5802   0.5802   0.6470   0.6565   0.6565   0.6665
     0.6756   0.6870   0.6870   0.7476   0.7476   0.7567   0.7567   0.8391
     0.9191   0.9191   0.9290   0.9361   0.9361   0.9674   0.9674   0.9679
     1.0547   1.0584   1.0584   1.0599   1.0827   1.0827   1.0994   1.0994
     1.1608   1.1653   1.1653   1.1848   1.2244   1.2244   1.2514   1.2562
     1.2562   1.2627   1.2627   1.2648   1.3057   1.3057   1.3412   1.3456
     1.3477   1.3477   1.3509   1.3509   1.3577   1.3577   1.3596   1.3679
     1.3819   1.3830   1.3830   1.4090   1.4090   1.4185   1.4185   1.4272
     1.4460   1.4460   1.4488   1.4658   1.4658   1.4667   1.4717   1.4779
     1.4848   1.4848   1.4913   1.4913   1.5723   1.5723   1.6115   1.6115
     1.6246   1.6350   1.6350   1.6528   1.8766   2.3463   2.3463   2.5630
     2.7581   2.7581   2.7605   3.1058   3.8603   3.8603   4.7660   5.1314
     5.1314   5.1357   5.8934   5.8934   6.5416   6.6701   6.8360   6.8360
     6.9742   7.0771   7.0791   7.0791   7.4695   7.5542   7.5542   7.5773
     7.6891   7.6891   7.8538   7.8568   8.1935   8.4351   8.4351   8.8087
     8.9115   8.9115   8.9889   9.6987   9.6987   9.7242   9.7272   9.7272
     9.7349   9.8313   9.8313  10.0002  10.2132  10.2132  10.2464  10.2579
    10.2579  10.4366  10.6655  10.8777  10.8777  10.8842  10.8974  10.8974
    10.9269  11.2362  11.2362  11.3360  11.4508  11.6043  11.6043  11.6258
    11.6411  11.6411  11.7188  11.7188  11.7209  11.7333  11.7333  12.0434
    12.2276  12.2276  12.3984  12.5693  12.5693  12.7438  12.8133  12.8133
    12.9441  13.2668

[...]

 ------ SPIN DOWN ----------

[...]

     the Fermi energy is     2.1524 ev

!    total energy              =   -3634.74182591 Ry
     Harris-Foulkes estimate   =   -3634.74182393 Ry
     estimated scf accuracy    <       0.00000067 Ry

     The total energy is the sum of the following terms:

     one-electron contribution =  -24251.19508478 Ry
     hartree contribution      =   12525.71998240 Ry
     xc contribution           =   -1509.30941293 Ry
     ewald contribution        =    9600.20556840 Ry
     electric field correction =       0.00005540 Ry
     smearing contrib. (-TS)   =      -0.16293439 Ry

[...]

     convergence has been achieved in  48 iterations

     Forces acting on atoms (Ry/au):

     negative rho (up, down):  2.680E-04 2.094E-04
     atom    1 type  1   force =     0.00012233   -0.00007650    0.00535552
     atom    2 type  1   force =    -0.00049601   -0.00010307   -0.00327653
     atom    3 type  1   force =    -0.00237488   -0.00137422   -0.00020782
     atom    4 type  1   force =     0.01738688    0.01004106    0.04137189
     atom    5 type  1   force =     0.00000339    0.00014242    0.00535270
     atom    6 type  1   force =    -0.00032884   -0.00037357   -0.00327542
     atom    7 type  1   force =    -0.00001342   -0.00118829    0.00566863
     atom    8 type  1   force =    -0.01084980    0.00624575   -0.00682504
     atom    9 type  1   force =    -0.00002733   -0.00000918    0.00494582
     atom   10 type  1   force =    -0.00002335   -0.00001284   -0.00441960
     atom   11 type  1   force =    -0.00104382    0.00058089    0.00566692
     atom   12 type  1   force =    -0.00001887   -0.01252297   -0.00682373
     atom   13 type  1   force =    -0.00001773    0.00001597    0.00493667
     atom   14 type  1   force =     0.00047685   -0.00008671   -0.00328099
     atom   15 type  1   force =    -0.00001212   -0.00205136   -0.00767025
     atom   16 type  1   force =    -0.01738815    0.01005966    0.04136971
     atom   17 type  1   force =     0.00038273    0.00022377    0.00500392
     atom   18 type  1   force =     0.00000406    0.00001190   -0.00183039
     atom   19 type  1   force =    -0.00178078    0.00102271   -0.00767171
     atom   20 type  1   force =     0.00001590   -0.02008564    0.04136899
     atom   21 type  1   force =     0.00001288   -0.00002146    0.00493750
     atom   22 type  1   force =     0.00017110    0.00045199   -0.00327986
     atom   23 type  1   force =     0.00101818    0.00058102    0.00566777
     atom   24 type  1   force =     0.00155808    0.00089484   -0.00772250
     atom   25 type  1   force =    -0.00010517   -0.00007010    0.00534470
     atom   26 type  1   force =     0.00001930    0.00000145   -0.00800241
     atom   27 type  1   force =     0.00238710   -0.00135107   -0.00020684
     atom   28 type  1   force =     0.00000155   -0.00177701   -0.00773082
     atom   29 type  1   force =    -0.00038616    0.00024190    0.00500167
     atom   30 type  1   force =     0.00032501   -0.00034899   -0.00327630
     atom   31 type  1   force =     0.00179409    0.00104381   -0.00767032
     atom   32 type  1   force =     0.01083300    0.00625816   -0.00683514
     atom   33 type  1   force =     0.00001465   -0.00044736    0.00500550
     atom   34 type  1   force =    -0.00014770    0.00046142   -0.00327645
     atom   35 type  1   force =     0.00002579    0.00273585   -0.00020995
     atom   36 type  1   force =    -0.00153901    0.00088648   -0.00773305
     atom   37 type  2   force =     0.00000028   -0.00000073   -0.08577277

     Total force =     0.123290     Total SCF correction =     0.002547
 !ASE

     Writing output data file calc.save
     Check: negative starting charge=(component1):   -0.000534
     NEW-OLD atomic charge density approx. for the potential
     Check: negative starting charge=(component1):   -0.000543

[...]

     Total force =     0.026342     Total SCF correction =     0.001980
 !ASE

     Writing output data file calc.save
     Check: negative starting charge=(component1):   -0.000541
     NEW-OLD atomic charge density approx. for the potential
     Check: negative starting charge=(component1):   -0.000540

[...]

     Self-consistent Calculation

[...]

     total energy              =   -3634.76414030 Ry
     Harris-Foulkes estimate   =   -3634.76414024 Ry
     estimated scf accuracy    <       0.00000101 Ry

[...]

     iteration # 18     ecut=    44.10 Ry     beta=0.10
     Davidson diagonalization with overlap
     ethr =  2.76E-10,  avg # of iterations =  1.0

     negative rho (up, down):  2.685E-04 2.109E-04

[...]

     Adding external electric field

     Computed dipole along edir(3) :
        Dipole               -0.1411 Ry au,         -0.3587 Debye
        Dipole field         -0.0003 Ry au

        Potential amp.        0.0196 Ry
        Total length         38.9923 bohr

     Magnetic moment per site:
     atom:    1    charge:    3.9712    magn:    0.3838    constr:    0.0000
     atom:    2    charge:    3.9685    magn:    0.3852    constr:    0.0000
     atom:    3    charge:    3.9678    magn:    0.3520    constr:    0.0000
     atom:    4    charge:    3.8591    magn:    0.0891    constr:    0.0000
     atom:    5    charge:    3.9712    magn:    0.3838    constr:    0.0000
     atom:    6    charge:    3.9685    magn:    0.3852    constr:    0.0000
     atom:    7    charge:    3.9676    magn:    0.3725    constr:    0.0000
     atom:    8    charge:    3.9492    magn:    0.3527    constr:    0.0000
     atom:    9    charge:    3.9713    magn:    0.3711    constr:    0.0000
     atom:   10    charge:    3.9686    magn:    0.3838    constr:    0.0000
     atom:   11    charge:    3.9676    magn:    0.3725    constr:    0.0000
     atom:   12    charge:    3.9492    magn:    0.3527    constr:    0.0000
     atom:   13    charge:    3.9712    magn:    0.3711    constr:    0.0000
     atom:   14    charge:    3.9685    magn:    0.3852    constr:    0.0000
     atom:   15    charge:    3.9687    magn:    0.3667    constr:    0.0000
     atom:   16    charge:    3.8591    magn:    0.0891    constr:    0.0000
     atom:   17    charge:    3.9712    magn:    0.3753    constr:    0.0000
     atom:   18    charge:    3.9685    magn:    0.3890    constr:    0.0000
     atom:   19    charge:    3.9687    magn:    0.3667    constr:    0.0000
     atom:   20    charge:    3.8591    magn:    0.0891    constr:    0.0000
     atom:   21    charge:    3.9712    magn:    0.3711    constr:    0.0000
     atom:   22    charge:    3.9685    magn:    0.3852    constr:    0.0000
     atom:   23    charge:    3.9676    magn:    0.3725    constr:    0.0000
     atom:   24    charge:    3.9604    magn:    0.3218    constr:    0.0000
     atom:   25    charge:    3.9712    magn:    0.3838    constr:    0.0000
     atom:   26    charge:    3.9691    magn:    0.3808    constr:    0.0000
     atom:   27    charge:    3.9678    magn:    0.3520    constr:    0.0000
     atom:   28    charge:    3.9604    magn:    0.3218    constr:    0.0000
     atom:   29    charge:    3.9712    magn:    0.3753    constr:    0.0000
     atom:   30    charge:    3.9685    magn:    0.3852    constr:    0.0000
     atom:   31    charge:    3.9688    magn:    0.3667    constr:    0.0000
     atom:   32    charge:    3.9492    magn:    0.3527    constr:    0.0000
     atom:   33    charge:    3.9712    magn:    0.3753    constr:    0.0000
     atom:   34    charge:    3.9685    magn:    0.3852    constr:    0.0000
     atom:   35    charge:    3.9678    magn:    0.3520    constr:    0.0000
     atom:   36    charge:    3.9604    magn:    0.3218    constr:    0.0000
     atom:   37    charge:    0.5760    magn:   -0.0038    constr:    0.0000

     End of self-consistent calculation

 ------ SPIN UP ------------

[...]

 ------ SPIN DOWN ----------

[...]

          k = 0.0442-0.0255 0.0000 ( 34862 PWs)   bands (ev):

    -8.9288  -5.8307  -4.7213  -4.4677  -3.7075  -3.6703  -3.4949  -2.8463
    -2.8201  -2.5798  -2.3215  -2.2867  -2.1672  -2.0548  -1.9802  -1.8982
    -1.8664  -1.8163  -1.6930  -1.6761  -1.5755  -1.3950  -1.3932  -1.2914
    -1.2834  -1.2616  -1.2348  -1.2059  -1.1484  -1.1167  -1.1092  -1.0544
    -0.9183  -0.9157  -0.8874  -0.8815  -0.7912  -0.7694  -0.7603  -0.7402
    -0.7132  -0.6779  -0.6377  -0.6096  -0.5763  -0.5123  -0.4971  -0.4509
    -0.4061  -0.3815  -0.3454  -0.3423  -0.2747  -0.2682  -0.2514  -0.2336
    -0.1705  -0.1309  -0.1003  -0.0892  -0.0763  -0.0294   0.0216   0.0420
     0.1259   0.1358   0.1537   0.1607   0.1914   0.2071   0.2251   0.2740
     0.2858   0.3144   0.3327   0.3418   0.3820   0.4039   0.4180   0.4233
     0.4424   0.5069   0.5072   0.5230   0.5388   0.5475   0.5799   0.5868
     0.6039   0.6230   0.6337   0.6576   0.6599   0.6821   0.6867   0.7060
     0.7243   0.7275   0.7476   0.7724   0.7801   0.8125   0.8227   0.8300
     0.8435   0.8523   0.8754   0.8779   0.9098   0.9180   0.9371   0.9425
     0.9739   0.9892   1.0277   1.0324   1.0744   1.0929   1.0967   1.1501
     1.1715   1.1933   1.2230   1.2554   1.2642   1.2859   1.3052   1.3299
     1.3440   1.3588   1.3642   1.3652   1.4346   1.4436   1.4708   1.5099
     1.5349   1.5735   1.5888   1.5966   1.6081   1.6112   1.6763   1.6911
     1.7174   1.7315   1.7389   1.7536   1.7703   1.7870   1.7903   1.8274
     1.8331   1.8769   1.8860   1.9147   1.9189   1.9405   1.9416   1.9717
     1.9756   2.0074   2.0135   2.0425   2.0572   2.0816   2.1115   2.1145
     2.1366   2.1512   2.1603   2.1706   2.1973   2.2187   2.2288   2.2288
     2.2541   2.2569   2.2732   2.2989   2.3001   2.3071   2.3323   2.3534
     2.3727   2.4039   2.4053   2.4141   2.4482   2.4510   2.5184   2.5286
     2.7551   2.8154   2.8893   2.9064   3.0387   3.1252   3.1702   3.3025
     3.5132   3.7912   3.8951   4.1479   4.2474   4.4063   4.4198   4.6325
     4.7523   5.0124   5.1448   5.3608   5.5674   5.6667   5.9207   6.1606
     6.3813   6.6256   6.8587   7.0157   7.0578   7.2321   7.3765   7.6442
     7.7003   8.1748   8.2204   8.3983   8.5167   8.6881   9.0003   9.0065
     9.0706   9.1706   9.2313   9.2570   9.3589   9.4081   9.4756   9.5622
     9.5648   9.6288   9.7375   9.8996  10.1503  10.2389  10.4543  10.4843
    10.6131  10.7846  10.7992  10.8792  11.0655  11.1238  11.1559  11.2613
    11.3199  11.4256  11.5816  11.6624  11.7219  11.8184  11.8588  12.0480
    12.1063  12.1299  12.2445  12.3063  12.3555  12.6617  12.7274  12.7445
    12.8545  13.0306  13.1631  13.1826  13.2205  13.2283  13.2724  13.4540
    13.5209  13.5404

     the Fermi energy is     2.1747 ev

!    total energy              =   -3634.76414022 Ry
     Harris-Foulkes estimate   =   -3634.76413774 Ry
     estimated scf accuracy    <       0.00000048 Ry

     The total energy is the sum of the following terms:

     one-electron contribution =  -24253.55959896 Ry
     hartree contribution      =   12527.06191899 Ry
     xc contribution           =   -1509.43879977 Ry
     ewald contribution        =    9601.33440250 Ry
     electric field correction =       0.00003552 Ry
     smearing contrib. (-TS)   =      -0.16209851 Ry

     total magnetization       =    20.09 Bohr mag/cell
     absolute magnetization    =    23.60 Bohr mag/cell

     convergence has been achieved in  18 iterations

     Forces acting on atoms (Ry/au):

     negative rho (up, down):  2.685E-04 2.109E-04
     atom    1 type  1   force =     0.00038092   -0.00020375    0.00568068
     atom    2 type  1   force =    -0.00065866   -0.00008360   -0.00363718
     atom    3 type  1   force =    -0.00029537   -0.00016028   -0.00061536
     atom    4 type  1   force =    -0.00047830   -0.00027338   -0.00022311
     atom    5 type  1   force =     0.00000958    0.00043509    0.00568315
     atom    6 type  1   force =    -0.00040745   -0.00052935   -0.00363688
     atom    7 type  1   force =     0.00005997    0.00047116   -0.00150732
     atom    8 type  1   force =    -0.00020557    0.00015451   -0.00141659
     atom    9 type  1   force =     0.00005549    0.00002566    0.00476801
     atom   10 type  1   force =     0.00003806    0.00001927   -0.00352222
     atom   11 type  1   force =     0.00045063   -0.00018688   -0.00151050
     atom   12 type  1   force =     0.00003630   -0.00025426   -0.00141759
     atom   13 type  1   force =     0.00002704   -0.00003136    0.00478336
     atom   14 type  1   force =     0.00067916   -0.00011737   -0.00363541
     atom   15 type  1   force =     0.00002070    0.00010431    0.00072653
     atom   16 type  1   force =     0.00053776   -0.00035559   -0.00026833
     atom   17 type  1   force =     0.00042240    0.00024476    0.00479033
     atom   18 type  1   force =    -0.00002054   -0.00001583   -0.00250039
     atom   19 type  1   force =     0.00009273   -0.00004304    0.00072760
     atom   20 type  1   force =    -0.00004154    0.00061820   -0.00025232
     atom   21 type  1   force =    -0.00001827    0.00003542    0.00478372
     atom   22 type  1   force =     0.00023249    0.00064709   -0.00363568
     atom   23 type  1   force =    -0.00036601   -0.00020693   -0.00148320
     atom   24 type  1   force =    -0.00040249   -0.00022713   -0.00096098
     atom   25 type  1   force =    -0.00040712   -0.00022971    0.00569146
     atom   26 type  1   force =    -0.00001823   -0.00000376   -0.00637336
     atom   27 type  1   force =     0.00026955   -0.00024122   -0.00060333
     atom   28 type  1   force =     0.00000502    0.00042189   -0.00091717
     atom   29 type  1   force =    -0.00043132    0.00020855    0.00478541
     atom   30 type  1   force =     0.00042560   -0.00056053   -0.00364068
     atom   31 type  1   force =    -0.00015236   -0.00010158    0.00071608
     atom   32 type  1   force =     0.00024165    0.00013316   -0.00137446
     atom   33 type  1   force =    -0.00003612   -0.00048342    0.00478333
     atom   34 type  1   force =    -0.00026926    0.00064377   -0.00364146
     atom   35 type  1   force =    -0.00008304    0.00036372   -0.00060494
     atom   36 type  1   force =     0.00036664   -0.00020053   -0.00091000
     atom   37 type  2   force =    -0.00006005   -0.00001708    0.00036878

     Total force =     0.019955     Total SCF correction =     0.003253
     SCF correction compared to forces is large: reduce conv_thr to get better values
 !ASE

     Writing output data file calc.save

     General routines

     Parallel routines

   This run was terminated on:  18:16: 4  10Mar2017

   JOB DONE.