     Program PWSCF v.5.1rc2 (svn rev. ) starts on 23Mar2018 at  9:16:28

     Current dimensions of program PWSCF are:
     Max number of different atomic species (ntypx) = 10
     Max number of k-points (npk) =  40000
     Max angular momentum in pseudopotentials (lmaxx) =  3
     Presently no symmetry can be used with electric field

     IMPORTANT: XC functional enforced from input :
     Exchange-correlation      = RPBE ( 1  4 28  4 0)
     Any further DFT definition will be discarded
     Please, verify this is what you really want

               file Ni.UPF: wavefunction(s)  3D renormalized

     Subspace diagonalization in iterative solution of the eigenvalue problem:
     a serial algorithm will be used

     Generating pointlists ...
     new r_m :   0.4125 (alat units)  0.7795 (a.u.) for type    1
     new r_m :   0.4125 (alat units)  0.7795 (a.u.) for type    2

     bravais-lattice index     =            0
     lattice parameter (alat)  =       1.8897  a.u.
     unit-cell volume          =   12553.3819 (a.u.)^3
     number of atoms/cell      =           37
     number of atomic types    =            2
     number of electrons       =       364.00
     number of Kohn-Sham states=          282
     kinetic-energy cutoff     =      44.0992  Ry
     charge density cutoff     =     440.9919  Ry
     convergence threshold     =      7.3E-07
     mixing beta               =       0.1000
     number of iterations used =           10  plain     mixing
     Exchange-correlation      = RPBE ( 1  4 28  4 0)
     nstep                     =           50

     celldm(1)=   1.889726  celldm(2)=   0.000000  celldm(3)=   0.000000
     celldm(4)=   0.000000  celldm(5)=   0.000000  celldm(6)=   0.000000

     crystal axes: (cart. coord. in units of alat)
               a(1) = (   6.162925   0.000000   0.000000 )
               a(2) = (   0.000000   7.548011   0.000000 )
               a(3) = (   0.000000   0.000000  39.989385 )

     reciprocal axes: (cart. coord. in units 2 pi/alat)
               b(1) = (  0.162261  0.000000  0.000000 )
               b(2) = (  0.000000  0.132485  0.000000 )
               b(3) = (  0.000000  0.000000  0.025007 )

     PseudoPot. # 1 for Ni read from file:
     /home/alatimer/bin/psp/esp_psp_w_gbrvRu/Ni.UPF
     MD5 check sum: 8b2449ee0060d9c33484ccd47bb60870
     Pseudo is Ultrasoft + core correction, Zval = 10.0
     Generated using "atomic" code by A. Dal Corso  v.5.0.2 svn rev. 9415
     Using radial grid of 1195 points,  6 beta functions with:
                l(1) =   0
                l(2) =   0
                l(3) =   1
                l(4) =   1
                l(5) =   2
                l(6) =   2
     Q(r) pseudized with 0 coefficients

     PseudoPot. # 2 for  C read from file:
     /home/alatimer/bin/psp/esp_psp_w_gbrvRu/C.UPF
     MD5 check sum: ab446d787031eba755f1d5ee46644bb0
     Pseudo is Ultrasoft + core correction, Zval =  4.0
     Generated using "atomic" code by A. Dal Corso  v.5.0.2 svn rev. 9415
     Using radial grid of 1073 points,  4 beta functions with:
                l(1) =   0
                l(2) =   0
                l(3) =   1
                l(4) =   1
     Q(r) pseudized with 0 coefficients

     atomic species   valence    mass     pseudopotential
        Ni1           10.00    58.69340     Ni( 1.00)
        C1             4.00    12.01100      C( 1.00)

     Starting magnetic structure
     atomic species   magnetization
        Ni1          0.300
        C1           0.750

     No symmetry found

   Cartesian axes

     site n.     atom                  positions (alat units)
         1           Ni1 tau(   1) = (   0.0000000   1.2580018  23.9893847  )
         2           Ni1 tau(   2) = (   0.0000000   3.7740055  23.9893847  )
         3           Ni1 tau(   3) = (   0.0000000   6.2900092  23.9893847  )
         4           Ni1 tau(   4) = (   4.1086168   0.0000000  23.2630770  )
         5           Ni1 tau(   5) = (   4.1086168   2.5160037  23.2630770  )
         6           Ni1 tau(   6) = (   4.1086168   5.0320073  23.2630770  )
         7           Ni1 tau(   7) = (   2.0543084   1.2580018  22.5367693  )
         8           Ni1 tau(   8) = (   2.0543084   3.7740055  22.5367693  )
         9           Ni1 tau(   9) = (   2.0543084   6.2900092  22.5367693  )
        10           Ni1 tau(  10) = (   0.0000000   0.0000000  21.8104616  )
        11           Ni1 tau(  11) = (   0.0000000   2.5160037  21.8104616  )
        12           Ni1 tau(  12) = (   0.0000000   5.0320073  21.8104616  )
        13           Ni1 tau(  13) = (   4.1086168   1.2580018  21.0841539  )
        14           Ni1 tau(  14) = (   4.1086168   3.7740055  21.0841539  )
        15           Ni1 tau(  15) = (   4.1086168   6.2900092  21.0841539  )
        16           Ni1 tau(  16) = (   2.0543084   0.0000000  20.3578462  )
        17           Ni1 tau(  17) = (   2.0543084   2.5160037  20.3578462  )
        18           Ni1 tau(  18) = (   2.0543084   5.0320073  20.3578462  )
        19           Ni1 tau(  19) = (   0.0000000   1.2580018  19.6315385  )
        20           Ni1 tau(  20) = (   0.0000000   3.7740055  19.6315385  )
        21           Ni1 tau(  21) = (   0.0000000   6.2900092  19.6315385  )
        22           Ni1 tau(  22) = (   4.1086168   0.0000000  18.9052308  )
        23           Ni1 tau(  23) = (   4.1086168   2.5160037  18.9052308  )
        24           Ni1 tau(  24) = (   4.1086168   5.0320073  18.9052308  )
        25           Ni1 tau(  25) = (   2.0543084   1.2580018  18.1789231  )
        26           Ni1 tau(  26) = (   2.0543084   3.7740055  18.1789231  )
        27           Ni1 tau(  27) = (   2.0543084   6.2900092  18.1789231  )
        28           Ni1 tau(  28) = (   0.0000000   0.0000000  17.4526154  )
        29           Ni1 tau(  29) = (   0.0000000   2.5160037  17.4526154  )
        30           Ni1 tau(  30) = (   0.0000000   5.0320073  17.4526154  )
        31           Ni1 tau(  31) = (   4.1086168   1.2580018  16.7263077  )
        32           Ni1 tau(  32) = (   4.1086168   3.7740055  16.7263077  )
        33           Ni1 tau(  33) = (   4.1086168   6.2900092  16.7263077  )
        34           Ni1 tau(  34) = (   2.0543084   0.0000000  16.0000000  )
        35           Ni1 tau(  35) = (   2.0543084   2.5160037  16.0000000  )
        36           Ni1 tau(  36) = (   2.0543084   5.0320073  16.0000000  )
        37           C1  tau(  37) = (   0.0000000   2.5160037  25.0893847  )

     number of k points=    10  Fermi-Dirac smearing, width (Ry)=  0.0073
                       cart. coord. in units 2pi/alat
        k(    1) = (   0.0000000   0.0000000   0.0000000), wk =   0.1111111
        k(    2) = (   0.0000000   0.0441617   0.0000000), wk =   0.2222222
        k(    3) = (   0.0540869   0.0000000   0.0000000), wk =   0.2222222
        k(    4) = (   0.0540869   0.0441617   0.0000000), wk =   0.2222222
        k(    5) = (   0.0540869  -0.0441617   0.0000000), wk =   0.2222222
        k(    6) = (   0.0000000   0.0000000   0.0000000), wk =   0.1111111
        k(    7) = (   0.0000000   0.0441617   0.0000000), wk =   0.2222222
        k(    8) = (   0.0540869   0.0000000   0.0000000), wk =   0.2222222
        k(    9) = (   0.0540869   0.0441617   0.0000000), wk =   0.2222222
        k(   10) = (   0.0540869  -0.0441617   0.0000000), wk =   0.2222222

     Largest allocated arrays     est. size (Mb)     dimensions
     Largest temporary arrays     est. size (Mb)     dimensions

     Initial potential from superposition of free atoms
     Check: negative starting charge=(component1):   -0.000937
     Check: negative starting charge=(component2):   -0.000509

     starting charge  363.99092, renormalised to  364.00000

     negative rho (up, down):  9.371E-04 5.091E-04

     Adding external electric field

     Computed dipole along edir(3) :
        Dipole               -0.0006 Ry au,         -0.0014 Debye
        Dipole field         -0.0000 Ry au

        Potential amp.        0.0001 Ry
        Total length         73.6798 bohr

[...]

     Starting wfc are  328 randomized atomic wfcs

     Self-consistent Calculation

     iteration #  1     ecut=    44.10 Ry     beta=0.10
     Davidson diagonalization with overlap
     ethr =  1.00E-02,  avg # of iterations =  8.2

[...]

     Magnetic moment per site:
     atom:    1    charge:    3.9660    magn:    1.1129    constr:    0.0000
     atom:    2    charge:    3.9660    magn:    1.1129    constr:    0.0000
     atom:    3    charge:    3.9287    magn:    1.1528    constr:    0.0000
     atom:    4    charge:    3.9503    magn:    1.1300    constr:    0.0000
     atom:    5    charge:    3.9531    magn:    1.1284    constr:    0.0000
     atom:    6    charge:    3.9503    magn:    1.1300    constr:    0.0000
     atom:    7    charge:    3.9635    magn:    1.1162    constr:    0.0000
     atom:    8    charge:    3.9635    magn:    1.1162    constr:    0.0000
     atom:    9    charge:    3.9595    magn:    1.1201    constr:    0.0000
     atom:   10    charge:    3.9723    magn:    1.1100    constr:    0.0000
     atom:   11    charge:    3.9723    magn:    1.1116    constr:    0.0000
     atom:   12    charge:    3.9723    magn:    1.1100    constr:    0.0000
     atom:   13    charge:    3.9709    magn:    1.1104    constr:    0.0000
     atom:   14    charge:    3.9709    magn:    1.1104    constr:    0.0000
     atom:   15    charge:    3.9714    magn:    1.1102    constr:    0.0000
     atom:   16    charge:    3.9723    magn:    1.1092    constr:    0.0000
     atom:   17    charge:    3.9729    magn:    1.1088    constr:    0.0000
     atom:   18    charge:    3.9723    magn:    1.1092    constr:    0.0000
     atom:   19    charge:    3.9712    magn:    1.1095    constr:    0.0000
     atom:   20    charge:    3.9712    magn:    1.1095    constr:    0.0000
     atom:   21    charge:    3.9716    magn:    1.1085    constr:    0.0000
     atom:   22    charge:    3.9709    magn:    1.1106    constr:    0.0000
     atom:   23    charge:    3.9709    magn:    1.1106    constr:    0.0000
     atom:   24    charge:    3.9709    magn:    1.1106    constr:    0.0000
     atom:   25    charge:    3.9667    magn:    1.1134    constr:    0.0000
     atom:   26    charge:    3.9667    magn:    1.1134    constr:    0.0000
     atom:   27    charge:    3.9668    magn:    1.1135    constr:    0.0000
     atom:   28    charge:    3.9583    magn:    1.1187    constr:    0.0000
     atom:   29    charge:    3.9589    magn:    1.1183    constr:    0.0000
     atom:   30    charge:    3.9583    magn:    1.1187    constr:    0.0000
     atom:   31    charge:    3.9483    magn:    1.1317    constr:    0.0000
     atom:   32    charge:    3.9483    magn:    1.1317    constr:    0.0000
     atom:   33    charge:    3.9480    magn:    1.1318    constr:    0.0000
     atom:   34    charge:    3.9242    magn:    1.1555    constr:    0.0000
     atom:   35    charge:    3.9242    magn:    1.1555    constr:    0.0000
     atom:   36    charge:    3.9242    magn:    1.1555    constr:    0.0000
[...]
    -3.3533  -3.2812  -3.2771  -3.2631  -3.2354  -3.2223  -3.2137  -3.1612
    -3.1201  -3.1077  -3.0901  -3.0860  -3.0756  -3.0658  -3.0625  -3.0437
    -3.0208  -3.0103  -2.9907  -2.9625  -2.9555  -2.9315  -2.9057  -2.8899
    -2.8669  -2.8617  -2.8536  -2.8491  -2.8480  -2.8341  -2.8135  -2.7967
    -2.7931  -2.7863  -2.7745  -2.7573  -2.7091  -2.6933  -2.6840  -2.6551
    -2.6077  -2.5874  -2.5646  -2.5592  -2.5440  -2.4962  -2.4799  -2.4660
    -2.4409  -2.4288  -2.4157  -2.4053  -2.3952  -2.3549  -2.3178  -2.2989
    -2.2979  -2.2360  -2.2303  -2.2114  -2.1853  -2.1736  -2.1693  -2.1447
    -2.1031  -2.0993  -2.0690  -2.0464  -2.0368  -2.0284  -1.9762  -1.9673
    -1.9546  -1.9493  -1.9358  -1.9150  -1.8963  -1.8939  -1.8839  -1.8741
    -1.8689  -1.8628  -1.8612  -1.8596  -1.8416  -1.8157  -1.8097  -1.7918
    -1.7895  -1.7714  -1.7681  -1.7305  -1.7257  -1.7016  -1.6798  -1.6598
    -1.6245  -1.6128  -1.6112  -1.5996  -1.5912  -1.5786  -1.5737  -1.5535
    -1.5493  -1.5440  -1.5359  -1.5317  -1.4954  -1.4951  -1.4880  -1.4765
    -1.4726  -1.4651  -1.4503  -1.4493  -1.3638  -1.3228  -1.2189  -1.0320
    -0.9866  -0.9298  -0.8075  -0.1104  -0.0621   0.0920   0.1292   0.2403
     0.3031   0.3128   0.3623   0.5653   0.7558   0.9216   0.9379   1.0075
     1.1097   1.3897   1.6491   1.8234   2.2098   2.2571   2.3418   2.5995
     2.6445   2.7482   3.1251   3.2365   3.2891   3.6028   3.6124   3.7672
     3.8755   4.0922   4.2869   4.5071   4.5401   4.7288   4.7791   4.8905
     5.1255   5.2084   5.2316   5.5724   5.7165   5.8127   5.8838   6.0032
     6.0558   6.1954   6.1961   6.2284   6.3094   6.3116   6.4877   6.5142
     6.6338   6.6929   6.7876   6.8422   6.8960   6.9234   7.0778   7.1730
     7.1754   7.2592   7.3148   7.3499   7.3748   7.4228   7.5591   7.6468
     7.6646   7.6930   7.7508   7.7624   7.8527   7.9280   7.9890   8.1629
     8.2145   8.2743   8.3458   8.3802   8.4913   8.5930   8.6383   8.7040
     8.7268   8.7744

[...]

 ------ SPIN DOWN ----------

[...]

     the Fermi energy is    -0.8863 ev

!    total energy              =   -3634.62650841 Ry
     Harris-Foulkes estimate   =   -3634.62650585 Ry
     estimated scf accuracy    <       0.00000068 Ry

     The total energy is the sum of the following terms:

     one-electron contribution =  -76876.02426935 Ry
     hartree contribution      =   38797.42064416 Ry
     xc contribution           =   -1509.32977750 Ry
     ewald contribution        =   35953.46687345 Ry
     electric field correction =       0.00011680 Ry
     smearing contrib. (-TS)   =      -0.16009597 Ry

[...]

     convergence has been achieved in  60 iterations

     Forces acting on atoms (Ry/au):

     negative rho (up, down):  7.433E-04 6.135E-04
     atom    1 type  1   force =     0.00342370   -0.04019724   -0.02117347
     atom    2 type  1   force =     0.00342801    0.04015647   -0.02113019
     atom    3 type  1   force =    -0.00530152    0.00004755   -0.01962669
     atom    4 type  1   force =     0.00290935   -0.00368162   -0.00627601
     atom    5 type  1   force =    -0.00832196   -0.00007137   -0.00600348
     atom    6 type  1   force =     0.00291058    0.00375188   -0.00622685
     atom    7 type  1   force =     0.00547674   -0.00138682    0.00545195
     atom    8 type  1   force =     0.00546493    0.00130275    0.00549893
     atom    9 type  1   force =    -0.00033602    0.00008345    0.00884489
     atom   10 type  1   force =     0.00268220   -0.00225794    0.00637155
     atom   11 type  1   force =     0.00354517   -0.00009575   -0.01106450
     atom   12 type  1   force =     0.00268488    0.00235343    0.00640653
     atom   13 type  1   force =    -0.00208831    0.00053165    0.00249363
     atom   14 type  1   force =    -0.00208506   -0.00064362    0.00251866
     atom   15 type  1   force =    -0.00378178    0.00011172    0.00167362
     atom   16 type  1   force =    -0.00133256   -0.00040099   -0.00046493
     atom   17 type  1   force =    -0.00201172   -0.00011914    0.00141347
     atom   18 type  1   force =    -0.00133679    0.00052035   -0.00044164
     atom   19 type  1   force =     0.00063384   -0.00114361    0.00024532
     atom   20 type  1   force =     0.00063429    0.00101955    0.00026511
     atom   21 type  1   force =     0.00077859    0.00012393   -0.00427991
     atom   22 type  1   force =     0.00454297   -0.00014736    0.00023900
     atom   23 type  1   force =     0.00420186   -0.00013417   -0.00054315
     atom   24 type  1   force =     0.00454523    0.00028100    0.00025250
     atom   25 type  1   force =    -0.00306291   -0.00031157   -0.01081566
     atom   26 type  1   force =    -0.00306776    0.00017025   -0.01080436
     atom   27 type  1   force =    -0.00280918    0.00013970   -0.01108008
     atom   28 type  1   force =    -0.00172912    0.00015165   -0.00971876
     atom   29 type  1   force =    -0.00196534   -0.00012565   -0.01040597
     atom   30 type  1   force =    -0.00173863   -0.00002740   -0.00974388
     atom   31 type  1   force =    -0.00528801   -0.00028070    0.00321459
     atom   32 type  1   force =    -0.00526451    0.00015834    0.00316972
     atom   33 type  1   force =    -0.00591601    0.00012189    0.00305098
     atom   34 type  1   force =     0.00610911   -0.00032848    0.02104306
     atom   35 type  1   force =     0.00583963   -0.00011001    0.02115478
     atom   36 type  1   force =     0.00610604    0.00043811    0.02098209
     atom   37 type  2   force =    -0.00847995   -0.00000021    0.04550911

     Total force =     0.098776     Total SCF correction =     0.003529
 !ASE

     Writing output data file calc.save
     Check: negative starting charge=(component1):   -0.001444
     NEW-OLD atomic charge density approx. for the potential
     Check: negative starting charge=(component1):   -0.001442

[...]

     iteration #  1     ecut=    44.10 Ry     beta=0.10
     Davidson diagonalization with overlap
     c_bands:  1 eigenvalues not converged
     ethr =  5.27E-10,  avg # of iterations =  9.3

[...]

     iteration #  1     ecut=    44.10 Ry     beta=0.10
     Davidson diagonalization with overlap
     c_bands:  1 eigenvalues not converged
     ethr =  3.00E-10,  avg # of iterations =  9.0

[...]

     Writing output data file calc.save
     Check: negative starting charge=(component1):   -0.001450
     NEW-OLD atomic charge density approx. for the potential
     Check: negative starting charge=(component1):   -0.001451

[...]

     Self-consistent Calculation

[...]

     total energy              =   -3634.69487808 Ry
     Harris-Foulkes estimate   =   -3634.69487813 Ry
     estimated scf accuracy    <       0.00000266 Ry

[...]

     iteration # 13     ecut=    44.10 Ry     beta=0.10
     Davidson diagonalization with overlap
     ethr =  5.71E-10,  avg # of iterations =  1.0

     negative rho (up, down):  7.438E-04 6.144E-04

[...]

     Adding external electric field

     Computed dipole along edir(3) :
        Dipole               -0.2373 Ry au,         -0.6032 Debye
        Dipole field         -0.0002 Ry au

        Potential amp.        0.0350 Ry
        Total length         73.6798 bohr

     Magnetic moment per site:
     atom:    1    charge:    3.7690    magn:    0.0890    constr:    0.0000
     atom:    2    charge:    3.7719    magn:    0.0879    constr:    0.0000
     atom:    3    charge:    3.8489    magn:    0.3641    constr:    0.0000
     atom:    4    charge:    3.9483    magn:    0.3942    constr:    0.0000
     atom:    5    charge:    3.9486    magn:    0.1051    constr:    0.0000
     atom:    6    charge:    3.9483    magn:    0.3940    constr:    0.0000
     atom:    7    charge:    3.9438    magn:    0.3293    constr:    0.0000
     atom:    8    charge:    3.9436    magn:    0.3291    constr:    0.0000
     atom:    9    charge:    3.9135    magn:    0.3808    constr:    0.0000
     atom:   10    charge:    3.9599    magn:    0.3531    constr:    0.0000
     atom:   11    charge:    3.9399    magn:    0.3768    constr:    0.0000
     atom:   12    charge:    3.9599    magn:    0.3530    constr:    0.0000
     atom:   13    charge:    3.9667    magn:    0.3626    constr:    0.0000
     atom:   14    charge:    3.9668    magn:    0.3625    constr:    0.0000
     atom:   15    charge:    3.9695    magn:    0.4009    constr:    0.0000
     atom:   16    charge:    3.9666    magn:    0.3835    constr:    0.0000
     atom:   17    charge:    3.9671    magn:    0.3829    constr:    0.0000
     atom:   18    charge:    3.9666    magn:    0.3835    constr:    0.0000
     atom:   19    charge:    3.9682    magn:    0.3951    constr:    0.0000
     atom:   20    charge:    3.9682    magn:    0.3951    constr:    0.0000
     atom:   21    charge:    3.9684    magn:    0.3809    constr:    0.0000
     atom:   22    charge:    3.9698    magn:    0.3863    constr:    0.0000
     atom:   23    charge:    3.9697    magn:    0.3885    constr:    0.0000
     atom:   24    charge:    3.9697    magn:    0.3863    constr:    0.0000
     atom:   25    charge:    3.9685    magn:    0.3913    constr:    0.0000
     atom:   26    charge:    3.9685    magn:    0.3913    constr:    0.0000
     atom:   27    charge:    3.9684    magn:    0.3877    constr:    0.0000
     atom:   28    charge:    3.9687    magn:    0.4045    constr:    0.0000
     atom:   29    charge:    3.9688    magn:    0.3940    constr:    0.0000
     atom:   30    charge:    3.9687    magn:    0.4045    constr:    0.0000
     atom:   31    charge:    3.9747    magn:    0.4142    constr:    0.0000
     atom:   32    charge:    3.9746    magn:    0.4143    constr:    0.0000
     atom:   33    charge:    3.9746    magn:    0.4175    constr:    0.0000
     atom:   34    charge:    3.9839    magn:    0.4251    constr:    0.0000
     atom:   35    charge:    3.9841    magn:    0.4246    constr:    0.0000
     atom:   36    charge:    3.9838    magn:    0.4252    constr:    0.0000
     atom:   37    charge:    0.1433    magn:   -0.0016    constr:    0.0000

     End of self-consistent calculation

 ------ SPIN UP ------------

[...]

 ------ SPIN DOWN ----------

[...]

          k = 0.0541-0.0442 0.0000 ( 62079 PWs)   bands (ev):

   -11.9098  -8.4984  -7.6648  -7.3223  -7.1996  -6.6082  -6.4581  -6.1901
    -5.8176  -5.5900  -5.3765  -5.2474  -5.1036  -4.9849  -4.8716  -4.8389
    -4.7833  -4.7307  -4.6961  -4.6082  -4.5377  -4.4691  -4.4114  -4.3311
    -4.2628  -4.2156  -4.1922  -4.1232  -4.0624  -4.0197  -4.0027  -3.9853
    -3.9456  -3.9244  -3.8649  -3.8393  -3.8266  -3.7847  -3.6723  -3.6490
    -3.6165  -3.5890  -3.5639  -3.5395  -3.5330  -3.4606  -3.4329  -3.3989
    -3.3837  -3.3666  -3.3225  -3.2704  -3.2397  -3.2198  -3.1926  -3.1618
    -3.1333  -3.0790  -3.0551  -3.0207  -2.9974  -2.9594  -2.9518  -2.9115
    -2.8896  -2.8427  -2.8248  -2.7936  -2.7843  -2.7720  -2.7333  -2.7256
    -2.7149  -2.6807  -2.6599  -2.6362  -2.6082  -2.5858  -2.5599  -2.5440
    -2.5224  -2.4996  -2.4845  -2.4742  -2.4592  -2.4472  -2.4331  -2.4029
    -2.4004  -2.3791  -2.3513  -2.3185  -2.3156  -2.2987  -2.2832  -2.2560
    -2.2313  -2.2231  -2.2128  -2.1843  -2.1678  -2.1471  -2.1184  -2.1087
    -2.0977  -2.0738  -2.0619  -2.0365  -2.0200  -2.0013  -1.9869  -1.9537
    -1.9175  -1.8956  -1.8792  -1.8701  -1.8574  -1.8287  -1.8052  -1.7913
    -1.7729  -1.7398  -1.7240  -1.7159  -1.6958  -1.6712  -1.6534  -1.6289
    -1.6030  -1.5798  -1.5719  -1.5538  -1.5278  -1.4927  -1.4711  -1.4455
    -1.4257  -1.4207  -1.3712  -1.3496  -1.3435  -1.3336  -1.3236  -1.2950
    -1.2747  -1.2629  -1.2285  -1.2191  -1.1983  -1.1856  -1.1583  -1.1510
    -1.1460  -1.1322  -1.0914  -1.0780  -1.0613  -1.0282  -1.0191  -0.9861
    -0.9833  -0.9660  -0.9501  -0.9315  -0.9121  -0.8967  -0.8798  -0.8593
    -0.8519  -0.8203  -0.8018  -0.7691  -0.7519  -0.7272  -0.7198  -0.7119
    -0.6813  -0.6788  -0.6677  -0.6507  -0.6383  -0.6331  -0.6117  -0.5904
    -0.5861  -0.5679  -0.5516  -0.5202  -0.5109  -0.5041  -0.4489  -0.4003
    -0.3481  -0.2888  -0.0843   0.0315   0.1559   0.2708   0.3860   0.4998
     0.5802   0.6696   0.7541   0.9898   1.1999   1.5527   1.6258   1.7858
     1.9126   1.9546   2.2446   2.3359   2.5665   2.6586   2.9671   3.1313
     3.2455   3.3843   3.7459   3.8240   4.0699   4.3099   4.3330   4.4311
     4.4834   4.5848   4.8033   4.9394   4.9668   4.9904   5.1367   5.2187
     5.3289   5.4036   5.4861   5.5499   5.6342   5.6512   5.7462   5.7966
     5.8635   5.9316   5.9556   5.9939   6.0393   6.1287   6.2266   6.3170
     6.3518   6.3939   6.4494   6.5045   6.5543   6.6576   6.7087   6.7591
     6.7991   6.8303   6.9913   7.0176   7.1218   7.1593   7.1692   7.2485
     7.2857   7.4254   7.5364   7.6866   7.7914   7.8116   7.8986   7.9891
     8.0244   8.0769   8.1294   8.1787   8.2133   8.3585   8.4440   8.5154
     8.5249   8.6198

     the Fermi energy is    -0.8016 ev

!    total energy              =   -3634.69487797 Ry
     Harris-Foulkes estimate   =   -3634.69487792 Ry
     estimated scf accuracy    <       0.00000063 Ry

     The total energy is the sum of the following terms:

     one-electron contribution =  -77088.12365764 Ry
     hartree contribution      =   38904.56735015 Ry
     xc contribution           =   -1509.48731360 Ry
     ewald contribution        =   36058.50834445 Ry
     electric field correction =       0.00005638 Ry
     smearing contrib. (-TS)   =      -0.15965771 Ry

     total magnetization       =    21.45 Bohr mag/cell
     absolute magnetization    =    24.78 Bohr mag/cell

     convergence has been achieved in  13 iterations

     Forces acting on atoms (Ry/au):

     negative rho (up, down):  7.438E-04 6.144E-04
     atom    1 type  1   force =    -0.00131067   -0.00013247   -0.00094407
     atom    2 type  1   force =    -0.00074892    0.00067907   -0.00120825
     atom    3 type  1   force =    -0.00111849   -0.00001470    0.00041913
     atom    4 type  1   force =    -0.00048098    0.00003932   -0.00018649
     atom    5 type  1   force =    -0.00005235   -0.00032262    0.00068927
     atom    6 type  1   force =    -0.00042968    0.00024593   -0.00007040
     atom    7 type  1   force =    -0.00029053   -0.00006348   -0.00014852
     atom    8 type  1   force =    -0.00046768   -0.00013229   -0.00003197
     atom    9 type  1   force =    -0.00054769    0.00021186   -0.00027571
     atom   10 type  1   force =     0.00009231    0.00007050   -0.00004749
     atom   11 type  1   force =    -0.00009448   -0.00023348   -0.00007791
     atom   12 type  1   force =     0.00014110    0.00009003    0.00011013
     atom   13 type  1   force =    -0.00028924   -0.00005757    0.00034273
     atom   14 type  1   force =    -0.00028030   -0.00016168    0.00015124
     atom   15 type  1   force =    -0.00029385    0.00021921   -0.00108042
     atom   16 type  1   force =    -0.00060156    0.00020086   -0.00024490
     atom   17 type  1   force =    -0.00016142   -0.00018961   -0.00040690
     atom   18 type  1   force =    -0.00059060   -0.00003419   -0.00047316
     atom   19 type  1   force =     0.00297259   -0.00058503   -0.00164399
     atom   20 type  1   force =     0.00289739    0.00058602   -0.00183566
     atom   21 type  1   force =     0.00197085   -0.00000079   -0.00281110
     atom   22 type  1   force =     0.00424405   -0.00079838   -0.00047361
     atom   23 type  1   force =     0.00385197    0.00006669   -0.00175315
     atom   24 type  1   force =     0.00421568    0.00073384   -0.00058167
     atom   25 type  1   force =    -0.00259479   -0.00048357   -0.00997265
     atom   26 type  1   force =    -0.00257488    0.00059804   -0.01008622
     atom   27 type  1   force =    -0.00292579   -0.00010292   -0.00962455
     atom   28 type  1   force =    -0.00163525    0.00037390   -0.00988879
     atom   29 type  1   force =    -0.00213339    0.00006916   -0.01086394
     atom   30 type  1   force =    -0.00161013   -0.00044155   -0.00992377
     atom   31 type  1   force =    -0.00502939    0.00000253    0.00304741
     atom   32 type  1   force =    -0.00507976    0.00010176    0.00304580
     atom   33 type  1   force =    -0.00585313   -0.00009935    0.00309612
     atom   34 type  1   force =     0.00595346   -0.00022314    0.02117980
     atom   35 type  1   force =     0.00578263    0.00011941    0.02122138
     atom   36 type  1   force =     0.00596584    0.00010664    0.02119189
     atom   37 type  2   force =    -0.00089291   -0.00043796    0.00016043

     Total force =     0.048068     Total SCF correction =     0.002545
 !ASE

     Writing output data file calc.save

     General routines

     Parallel routines

   This run was terminated on:   6: 6:43  24Mar2018

   JOB DONE.