     Program PWSCF v.5.1rc2 (svn rev. ) starts on 10Mar2017 at 15: 9:38

     Current dimensions of program PWSCF are:
     Max number of different atomic species (ntypx) = 10
     Max number of k-points (npk) =  40000
     Max angular momentum in pseudopotentials (lmaxx) =  3
     Presently no symmetry can be used with electric field

     IMPORTANT: XC functional enforced from input :
     Exchange-correlation      = RPBE ( 1  4 28  4 0)
     Any further DFT definition will be discarded
     Please, verify this is what you really want

               file Ni.UPF: wavefunction(s)  3D renormalized

     Subspace diagonalization in iterative solution of the eigenvalue problem:
     a serial algorithm will be used

     Generating pointlists ...
     new r_m :   0.4125 (alat units)  0.7795 (a.u.) for type    1
     new r_m :   0.4125 (alat units)  0.7795 (a.u.) for type    2

     bravais-lattice index     =            0
     lattice parameter (alat)  =       1.8897  a.u.
     unit-cell volume          =    7046.4111 (a.u.)^3
     number of atoms/cell      =           37
     number of atomic types    =            2
     number of electrons       =       366.00
     number of Kohn-Sham states=          283
     kinetic-energy cutoff     =      44.0992  Ry
     charge density cutoff     =     440.9919  Ry
     convergence threshold     =      7.3E-07
     mixing beta               =       0.1000
     number of iterations used =           10  plain     mixing
     Exchange-correlation      = RPBE ( 1  4 28  4 0)
     nstep                     =           50

     celldm(1)=   1.889726  celldm(2)=   0.000000  celldm(3)=   0.000000
     celldm(4)=   0.000000  celldm(5)=   0.000000  celldm(6)=   0.000000

     crystal axes: (cart. coord. in units of alat)
               a(1) = (   7.548011   0.000000   0.000000 )
               a(2) = (  -3.774005   6.536769   0.000000 )
               a(3) = (   0.000000   0.000000  21.162925 )

     reciprocal axes: (cart. coord. in units 2 pi/alat)
               b(1) = (  0.132485  0.076490  0.000000 )
               b(2) = (  0.000000  0.152981  0.000000 )
               b(3) = (  0.000000  0.000000  0.047252 )

     PseudoPot. # 1 for Ni read from file:
     /home/alatimer/bin/psp/esp_psp_w_gbrvRu/Ni.UPF
     MD5 check sum: 8b2449ee0060d9c33484ccd47bb60870
     Pseudo is Ultrasoft + core correction, Zval = 10.0
     Generated using "atomic" code by A. Dal Corso  v.5.0.2 svn rev. 9415
     Using radial grid of 1195 points,  6 beta functions with:
                l(1) =   0
                l(2) =   0
                l(3) =   1
                l(4) =   1
                l(5) =   2
                l(6) =   2
     Q(r) pseudized with 0 coefficients

     PseudoPot. # 2 for  O read from file:
     /home/alatimer/bin/psp/esp_psp_w_gbrvRu/O.UPF
     MD5 check sum: e057bbcf3229fb5d8c36c0c92f9568b4
     Pseudo is Ultrasoft + core correction, Zval =  6.0
     Generated using "atomic" code by A. Dal Corso  v.5.0.2 svn rev. 9415
     Using radial grid of 1095 points,  4 beta functions with:
                l(1) =   0
                l(2) =   0
                l(3) =   1
                l(4) =   1
     Q(r) pseudized with 0 coefficients

     atomic species   valence    mass     pseudopotential
        Ni1           10.00    58.69340     Ni( 1.00)
        O1             6.00    15.99940      O( 1.00)

     Starting magnetic structure
     atomic species   magnetization
        Ni1          0.300
        O1           0.500

     No symmetry found

   Cartesian axes

     site n.     atom                  positions (alat units)
         1           Ni1 tau(   1) = (   0.0000000   0.0000000   7.5000000  )
         2           Ni1 tau(   2) = (   1.2580018   0.7263077   9.5543084  )
         3           Ni1 tau(   3) = (   0.0000000   1.4526154  11.6086168  )
         4           Ni1 tau(   4) = (   1.2580018   2.1789231  13.6629252  )
         5           Ni1 tau(   5) = (  -1.2580018   2.1789231   7.5000000  )
         6           Ni1 tau(   6) = (   0.0000000   2.9052308   9.5543084  )
         7           Ni1 tau(   7) = (  -1.2580018   3.6315385  11.6086168  )
         8           Ni1 tau(   8) = (  -0.0000000   4.3578462  13.6629252  )
         9           Ni1 tau(   9) = (  -2.5160037   4.3578462   7.5000000  )
        10           Ni1 tau(  10) = (  -1.2580018   5.0841539   9.5543084  )
        11           Ni1 tau(  11) = (  -2.5160037   5.8104616  11.6086168  )
        12           Ni1 tau(  12) = (  -1.2580018   6.5367693  13.6629252  )
        13           Ni1 tau(  13) = (   2.5160037   0.0000000   7.5000000  )
        14           Ni1 tau(  14) = (   3.7740055   0.7263077   9.5543084  )
        15           Ni1 tau(  15) = (   2.5160037   1.4526154  11.6086168  )
        16           Ni1 tau(  16) = (   3.7740055   2.1789231  13.6629252  )
        17           Ni1 tau(  17) = (   1.2580018   2.1789231   7.5000000  )
        18           Ni1 tau(  18) = (   2.5160037   2.9052308   9.5543084  )
        19           Ni1 tau(  19) = (   1.2580018   3.6315385  11.6086168  )
        20           Ni1 tau(  20) = (   2.5160037   4.3578462  13.6629252  )
        21           Ni1 tau(  21) = (  -0.0000000   4.3578462   7.5000000  )
        22           Ni1 tau(  22) = (   1.2580018   5.0841539   9.5543084  )
        23           Ni1 tau(  23) = (  -0.0000000   5.8104616  11.6086168  )
        24           Ni1 tau(  24) = (   1.2580018   6.5367693  13.6629252  )
        25           Ni1 tau(  25) = (   5.0320073   0.0000000   7.5000000  )
        26           Ni1 tau(  26) = (   6.2900092   0.7263077   9.5543084  )
        27           Ni1 tau(  27) = (   5.0320073   1.4526154  11.6086168  )
        28           Ni1 tau(  28) = (   6.2900092   2.1789231  13.6629252  )
        29           Ni1 tau(  29) = (   3.7740055   2.1789231   7.5000000  )
        30           Ni1 tau(  30) = (   5.0320073   2.9052308   9.5543084  )
        31           Ni1 tau(  31) = (   3.7740055   3.6315385  11.6086168  )
        32           Ni1 tau(  32) = (   5.0320073   4.3578462  13.6629252  )
        33           Ni1 tau(  33) = (   2.5160037   4.3578462   7.5000000  )
        34           Ni1 tau(  34) = (   3.7740055   5.0841539   9.5543084  )
        35           Ni1 tau(  35) = (   2.5160037   5.8104616  11.6086168  )
        36           Ni1 tau(  36) = (   3.7740055   6.5367693  13.6629252  )
        37           O1  tau(  37) = (   2.5160037   2.9052308  15.0629252  )

     number of k points=    10  Fermi-Dirac smearing, width (Ry)=  0.0073
                       cart. coord. in units 2pi/alat
        k(    1) = (   0.0000000   0.0000000   0.0000000), wk =   0.1111111
        k(    2) = (   0.0000000   0.0509936   0.0000000), wk =   0.2222222
        k(    3) = (   0.0441617   0.0254968   0.0000000), wk =   0.2222222
        k(    4) = (   0.0441617   0.0764904   0.0000000), wk =   0.2222222
        k(    5) = (   0.0441617  -0.0254968   0.0000000), wk =   0.2222222
        k(    6) = (   0.0000000   0.0000000   0.0000000), wk =   0.1111111
        k(    7) = (   0.0000000   0.0509936   0.0000000), wk =   0.2222222
        k(    8) = (   0.0441617   0.0254968   0.0000000), wk =   0.2222222
        k(    9) = (   0.0441617   0.0764904   0.0000000), wk =   0.2222222
        k(   10) = (   0.0441617  -0.0254968   0.0000000), wk =   0.2222222

     Largest allocated arrays     est. size (Mb)     dimensions
     Largest temporary arrays     est. size (Mb)     dimensions

     Check: negative/imaginary core charge=   -0.000003    0.000000

     Initial potential from superposition of free atoms
     Check: negative starting charge=(component1):   -0.000376
     Check: negative starting charge=(component2):   -0.000197

     starting charge  365.99096, renormalised to  366.00000

     negative rho (up, down):  3.760E-04 1.975E-04

     Adding external electric field

     Computed dipole along edir(3) :
        Dipole               -0.0012 Ry au,         -0.0031 Debye
        Dipole field         -0.0000 Ry au

        Potential amp.        0.0002 Ry
        Total length         38.9923 bohr

[...]

     Starting wfc are  328 randomized atomic wfcs

     Self-consistent Calculation

     iteration #  1     ecut=    44.10 Ry     beta=0.10
     Davidson diagonalization with overlap
     ethr =  1.00E-02,  avg # of iterations =  6.9

[...]

     Magnetic moment per site:
     atom:    1    charge:    3.9489    magn:    1.1262    constr:    0.0000
     atom:    2    charge:    3.9680    magn:    1.1117    constr:    0.0000
     atom:    3    charge:    3.9700    magn:    1.1095    constr:    0.0000
     atom:    4    charge:    3.9456    magn:    1.1314    constr:    0.0000
     atom:    5    charge:    3.9489    magn:    1.1262    constr:    0.0000
     atom:    6    charge:    3.9680    magn:    1.1117    constr:    0.0000
     atom:    7    charge:    3.9681    magn:    1.1118    constr:    0.0000
     atom:    8    charge:    3.9491    magn:    1.1266    constr:    0.0000
     atom:    9    charge:    3.9491    magn:    1.1262    constr:    0.0000
     atom:   10    charge:    3.9679    magn:    1.1117    constr:    0.0000
     atom:   11    charge:    3.9681    magn:    1.1118    constr:    0.0000
     atom:   12    charge:    3.9491    magn:    1.1266    constr:    0.0000
     atom:   13    charge:    3.9491    magn:    1.1262    constr:    0.0000
     atom:   14    charge:    3.9680    magn:    1.1117    constr:    0.0000
     atom:   15    charge:    3.9682    magn:    1.1118    constr:    0.0000
     atom:   16    charge:    3.9456    magn:    1.1314    constr:    0.0000
     atom:   17    charge:    3.9490    magn:    1.1266    constr:    0.0000
     atom:   18    charge:    3.9676    magn:    1.1123    constr:    0.0000
     atom:   19    charge:    3.9682    magn:    1.1119    constr:    0.0000
     atom:   20    charge:    3.9456    magn:    1.1314    constr:    0.0000
     atom:   21    charge:    3.9491    magn:    1.1262    constr:    0.0000
     atom:   22    charge:    3.9680    magn:    1.1117    constr:    0.0000
     atom:   23    charge:    3.9681    magn:    1.1118    constr:    0.0000
     atom:   24    charge:    3.9487    magn:    1.1272    constr:    0.0000
     atom:   25    charge:    3.9489    magn:    1.1262    constr:    0.0000
     atom:   26    charge:    3.9680    magn:    1.1113    constr:    0.0000
     atom:   27    charge:    3.9700    magn:    1.1096    constr:    0.0000
     atom:   28    charge:    3.9487    magn:    1.1272    constr:    0.0000
     atom:   29    charge:    3.9490    magn:    1.1266    constr:    0.0000
     atom:   30    charge:    3.9680    magn:    1.1117    constr:    0.0000
     atom:   31    charge:    3.9682    magn:    1.1119    constr:    0.0000
     atom:   32    charge:    3.9491    magn:    1.1266    constr:    0.0000
     atom:   33    charge:    3.9490    magn:    1.1266    constr:    0.0000
     atom:   34    charge:    3.9680    magn:    1.1117    constr:    0.0000
     atom:   35    charge:    3.9700    magn:    1.1095    constr:    0.0000
[...]
    -0.0948  -0.0911  -0.0910  -0.0760  -0.0760  -0.0718  -0.0386  -0.0067
    -0.0067   0.0249   0.0637   0.0660   0.0660   0.0737   0.0737   0.0790
     0.0790   0.0813   0.0869   0.0914   0.1081   0.1339   0.1339   0.1538
     0.1538   0.1697   0.1697   0.1748   0.2267   0.2267   0.2756   0.4294
     0.4294   0.4498   0.4842   0.4842   0.5379   0.5611   0.5611   0.5657
     0.5732   0.5732   0.5881   0.6549   0.6549   0.6708   0.6708   0.6739
     0.8060   0.8176   0.8176   0.8222   0.8504   0.8504   0.8603   0.8603
     0.9565   0.9649   0.9649   0.9672   0.9822   0.9822   0.9876   0.9877
     1.0465   1.0675   1.0675   1.0761   1.1067   1.1067   1.1478   1.1631
     1.1631   1.1708   1.1719   1.1719   1.1915   1.2051   1.2051   1.2320
     1.2494   1.2521   1.2521   1.2541   1.2541   1.2571   1.2642   1.2642
     1.2878   1.2924   1.2924   1.3003   1.3003   1.3093   1.3093   1.3135
     1.3484   1.3484   1.3586   1.3619   1.3619   1.3680   1.3680   1.3713
     1.3810   1.3810   1.3877   1.3929   1.4750   1.4750   1.5090   1.5090
     1.5225   1.5306   1.5306   1.5335   1.5339   1.6866   1.6866   2.0806
     2.4903   2.6791   2.6792   2.6823   3.0140   3.0140   3.8332   5.0604
     5.0604   5.0605   5.3907   5.3907   5.9060   6.5367   6.7532   6.7532
     6.9323   6.9939   7.0031   7.0031   7.1525   7.4858   7.4906   7.4906
     7.6302   7.6302   7.7785   7.7835   8.0200   8.0200   8.1007   8.2869
     8.7675   8.7675   8.8341   9.6394   9.6394   9.6488   9.6541   9.6611
     9.6611   9.7506   9.7506   9.8155  10.1576  10.1613  10.1613  10.1751
    10.1751  10.3297  10.3837  10.8036  10.8036  10.8064  10.8180  10.8180
    10.8257  11.0992  11.1207  11.1207  11.2230  11.5503  11.5503  11.5553
    11.5694  11.5694  11.6491  11.6534  11.6534  11.6660  11.6660  11.7811
    12.0192  12.0392  12.0392  12.5104  12.5104  12.5641  12.6312  12.6358
    12.6358  13.1992  13.3600

[...]

 ------ SPIN DOWN ----------

[...]

     the Fermi energy is     2.0860 ev

!    total energy              =   -3656.58857708 Ry
     Harris-Foulkes estimate   =   -3656.58857773 Ry
     estimated scf accuracy    <       0.00000068 Ry

     The total energy is the sum of the following terms:

     one-electron contribution =  -24287.02093758 Ry
     hartree contribution      =   12544.56118734 Ry
     xc contribution           =   -1514.14730510 Ry
     ewald contribution        =    9600.18148426 Ry
     electric field correction =       0.00014718 Ry
     smearing contrib. (-TS)   =      -0.16315318 Ry

[...]

     convergence has been achieved in  47 iterations

     Forces acting on atoms (Ry/au):

     negative rho (up, down):  2.945E-04 2.264E-04
     atom    1 type  1   force =     0.00037327   -0.00016901    0.00535330
     atom    2 type  1   force =    -0.00072803    0.00018079   -0.00289467
     atom    3 type  1   force =     0.00169120    0.00098590    0.00695139
     atom    4 type  1   force =     0.01297561    0.00747689    0.04090654
     atom    5 type  1   force =     0.00000282    0.00041439    0.00536383
     atom    6 type  1   force =    -0.00024480   -0.00074516   -0.00289915
     atom    7 type  1   force =     0.00003570   -0.00044601    0.00517801
     atom    8 type  1   force =    -0.01133120    0.00657964   -0.00841595
     atom    9 type  1   force =    -0.00008727   -0.00007854    0.00482041
     atom   10 type  1   force =     0.00005134    0.00003262   -0.00424454
     atom   11 type  1   force =    -0.00033279    0.00026497    0.00518417
     atom   12 type  1   force =     0.00004380   -0.01308136   -0.00842299
     atom   13 type  1   force =     0.00003220    0.00016617    0.00484847
     atom   14 type  1   force =     0.00076089    0.00013963   -0.00288588
     atom   15 type  1   force =     0.00002020   -0.00103449   -0.00322389
     atom   16 type  1   force =    -0.01297354    0.00742788    0.04090732
     atom   17 type  1   force =     0.00009872    0.00004182    0.00483575
     atom   18 type  1   force =    -0.00001886   -0.00005659   -0.00355767
     atom   19 type  1   force =    -0.00089244    0.00049892   -0.00321921
     atom   20 type  1   force =    -0.00004153   -0.01496903    0.04092521
     atom   21 type  1   force =     0.00012218   -0.00006146    0.00483989
     atom   22 type  1   force =     0.00046480    0.00061351   -0.00288493
     atom   23 type  1   force =     0.00038985    0.00025650    0.00518958
     atom   24 type  1   force =     0.00168877    0.00100301   -0.00997823
     atom   25 type  1   force =    -0.00040520   -0.00019094    0.00537340
     atom   26 type  1   force =    -0.00003239    0.00002320   -0.00888564
     atom   27 type  1   force =    -0.00171144    0.00093260    0.00695507
     atom   28 type  1   force =    -0.00000214   -0.00201323   -0.00996757
     atom   29 type  1   force =    -0.00010164    0.00000290    0.00483658
     atom   30 type  1   force =     0.00026335   -0.00079359   -0.00289703
     atom   31 type  1   force =     0.00085740    0.00045516   -0.00321799
     atom   32 type  1   force =     0.01137202    0.00655271   -0.00839484
     atom   33 type  1   force =    -0.00003542   -0.00012538    0.00481700
     atom   34 type  1   force =    -0.00051627    0.00060531   -0.00289105
     atom   35 type  1   force =    -0.00005653   -0.00191315    0.00696705
     atom   36 type  1   force =    -0.00173202    0.00102519   -0.00995776
     atom   37 type  2   force =    -0.00000060   -0.00000177   -0.10541397

     Total force =     0.136035     Total SCF correction =     0.002647
 !ASE

     Writing output data file calc.save
     Check: negative starting charge=(component1):   -0.000573
     NEW-OLD atomic charge density approx. for the potential

     Check: negative/imaginary core charge=   -0.000003    0.000000
     Check: negative starting charge=(component1):   -0.000571

[...]

     Total force =     0.022616     Total SCF correction =     0.002495
     SCF correction compared to forces is large: reduce conv_thr to get better values
 !ASE

[...]

     Total force =     0.019576     Total SCF correction =     0.002853
     SCF correction compared to forces is large: reduce conv_thr to get better values
 !ASE

     Writing output data file calc.save
     Check: negative starting charge=(component1):   -0.000579
     NEW-OLD atomic charge density approx. for the potential

     Check: negative/imaginary core charge=   -0.000003    0.000000
     Check: negative starting charge=(component1):   -0.000580

[...]

     Self-consistent Calculation

[...]

     total energy              =   -3656.62447013 Ry
     Harris-Foulkes estimate   =   -3656.62447038 Ry
     estimated scf accuracy    <       0.00002486 Ry

[...]

     iteration # 16     ecut=    44.10 Ry     beta=0.10
     Davidson diagonalization with overlap
     ethr =  4.00E-10,  avg # of iterations =  1.0

     negative rho (up, down):  2.976E-04 2.300E-04

[...]

     Adding external electric field

     Computed dipole along edir(3) :
        Dipole               -0.1479 Ry au,         -0.3758 Debye
        Dipole field         -0.0003 Ry au

        Potential amp.        0.0206 Ry
        Total length         38.9923 bohr

     Magnetic moment per site:
     atom:    1    charge:    3.9712    magn:    0.3792    constr:    0.0000
     atom:    2    charge:    3.9687    magn:    0.3865    constr:    0.0000
     atom:    3    charge:    3.9645    magn:    0.3615    constr:    0.0000
     atom:    4    charge:    3.8715    magn:    0.2562    constr:    0.0000
     atom:    5    charge:    3.9712    magn:    0.3792    constr:    0.0000
     atom:    6    charge:    3.9687    magn:    0.3865    constr:    0.0000
     atom:    7    charge:    3.9668    magn:    0.3823    constr:    0.0000
     atom:    8    charge:    3.9286    magn:    0.3813    constr:    0.0000
     atom:    9    charge:    3.9713    magn:    0.3732    constr:    0.0000
     atom:   10    charge:    3.9687    magn:    0.3854    constr:    0.0000
     atom:   11    charge:    3.9668    magn:    0.3823    constr:    0.0000
     atom:   12    charge:    3.9285    magn:    0.3813    constr:    0.0000
     atom:   13    charge:    3.9713    magn:    0.3732    constr:    0.0000
     atom:   14    charge:    3.9687    magn:    0.3865    constr:    0.0000
     atom:   15    charge:    3.9687    magn:    0.3916    constr:    0.0000
     atom:   16    charge:    3.8715    magn:    0.2562    constr:    0.0000
     atom:   17    charge:    3.9713    magn:    0.3778    constr:    0.0000
     atom:   18    charge:    3.9689    magn:    0.4018    constr:    0.0000
     atom:   19    charge:    3.9687    magn:    0.3916    constr:    0.0000
     atom:   20    charge:    3.8715    magn:    0.2562    constr:    0.0000
     atom:   21    charge:    3.9713    magn:    0.3732    constr:    0.0000
     atom:   22    charge:    3.9687    magn:    0.3865    constr:    0.0000
     atom:   23    charge:    3.9668    magn:    0.3823    constr:    0.0000
     atom:   24    charge:    3.9542    magn:    0.3865    constr:    0.0000
     atom:   25    charge:    3.9712    magn:    0.3792    constr:    0.0000
     atom:   26    charge:    3.9694    magn:    0.3789    constr:    0.0000
     atom:   27    charge:    3.9645    magn:    0.3615    constr:    0.0000
     atom:   28    charge:    3.9542    magn:    0.3865    constr:    0.0000
     atom:   29    charge:    3.9713    magn:    0.3778    constr:    0.0000
     atom:   30    charge:    3.9687    magn:    0.3865    constr:    0.0000
     atom:   31    charge:    3.9687    magn:    0.3916    constr:    0.0000
     atom:   32    charge:    3.9287    magn:    0.3813    constr:    0.0000
     atom:   33    charge:    3.9713    magn:    0.3778    constr:    0.0000
     atom:   34    charge:    3.9687    magn:    0.3865    constr:    0.0000
     atom:   35    charge:    3.9645    magn:    0.3615    constr:    0.0000
     atom:   36    charge:    3.9542    magn:    0.3865    constr:    0.0000
     atom:   37    charge:    1.7400    magn:    0.0417    constr:    0.0000

     End of self-consistent calculation

 ------ SPIN UP ------------

[...]

 ------ SPIN DOWN ----------

[...]

          k = 0.0442-0.0255 0.0000 ( 34862 PWs)   bands (ev):

   -16.7431  -5.8856  -4.7492  -4.5864  -3.7662  -3.7150  -3.6350  -3.2270
    -3.1523  -2.9620  -2.7152  -2.5054  -2.4428  -2.1857  -2.1749  -1.9879
    -1.9390  -1.8545  -1.7727  -1.7268  -1.7163  -1.4265  -1.4217  -1.3129
    -1.2888  -1.2819  -1.2516  -1.2284  -1.1973  -1.1727  -1.1466  -1.0858
    -0.9630  -0.9190  -0.9073  -0.8970  -0.8790  -0.7633  -0.7589  -0.7403
    -0.7295  -0.7087  -0.6679  -0.6139  -0.5858  -0.5420  -0.4726  -0.4517
    -0.4305  -0.3961  -0.3368  -0.3273  -0.2846  -0.2783  -0.2655  -0.2449
    -0.2220  -0.1268  -0.1191  -0.0901  -0.0865  -0.0237   0.0133   0.0342
     0.1308   0.1474   0.1615   0.1649   0.1875   0.2225   0.2251   0.2638
     0.3116   0.3179   0.3249   0.3455   0.3723   0.3961   0.4131   0.4237
     0.4385   0.4958   0.5092   0.5314   0.5498   0.5676   0.5801   0.5997
     0.6046   0.6144   0.6387   0.6524   0.6664   0.6778   0.6985   0.7130
     0.7153   0.7289   0.7641   0.7647   0.7827   0.8143   0.8174   0.8290
     0.8458   0.8514   0.8682   0.8827   0.9036   0.9254   0.9332   0.9412
     0.9504   0.9991   1.0231   1.0378   1.0642   1.0787   1.1185   1.1507
     1.1592   1.2217   1.2324   1.2573   1.2603   1.2799   1.3007   1.3284
     1.3434   1.3472   1.3562   1.3775   1.3942   1.4307   1.4586   1.4942
     1.5207   1.5741   1.5889   1.5963   1.6033   1.6107   1.6786   1.6918
     1.7131   1.7264   1.7372   1.7571   1.7686   1.7726   1.7918   1.8185
     1.8288   1.8540   1.8918   1.9059   1.9172   1.9355   1.9443   1.9555
     1.9736   1.9891   2.0211   2.0222   2.0572   2.0700   2.0830   2.1100
     2.1204   2.1488   2.1491   2.1640   2.1649   2.1972   2.2101   2.2370
     2.2652   2.2657   2.2710   2.2949   2.2982   2.3029   2.3268   2.3324
     2.3664   2.3901   2.3960   2.4084   2.4337   2.4553   2.4627   2.5199
     2.5631   2.6220   2.8297   2.8958   2.9167   2.9740   3.1111   3.1387
     3.3201   3.3472   3.6434   3.8513   4.1509   4.2732   4.3102   4.6190
     4.6340   4.8090   5.0708   5.1621   5.3001   5.4798   5.7716   5.9763
     6.3825   6.5319   6.6285   6.8084   6.9514   7.0649   7.2250   7.4528
     7.5988   7.7763   8.1199   8.2748   8.4412   8.5540   8.9895   8.9943
     9.0551   9.1253   9.1878   9.1934   9.2417   9.3270   9.3649   9.4279
     9.5419   9.5793   9.6427   9.8292  10.0150  10.1014  10.2972  10.4288
    10.4793  10.6698  10.7199  10.7664  10.8883  11.0506  11.0688  11.1610
    11.2282  11.3021  11.3943  11.5556  11.5932  11.6677  11.7664  11.8637
    12.0360  12.0448  12.2418  12.2692  12.3478  12.5048  12.5599  12.6295
    12.7070  12.8595  12.9814  13.0891  13.1129  13.1698  13.2147  13.3900
    13.4467  13.4494  13.5486

     the Fermi energy is     2.1692 ev

!    total energy              =   -3656.62447073 Ry
     Harris-Foulkes estimate   =   -3656.62447102 Ry
     estimated scf accuracy    <       0.00000025 Ry

     The total energy is the sum of the following terms:

     one-electron contribution =  -24359.61182205 Ry
     hartree contribution      =   12581.55677970 Ry
     xc contribution           =   -1514.28981224 Ry
     ewald contribution        =    9635.88281370 Ry
     electric field correction =       0.00003899 Ry
     smearing contrib. (-TS)   =      -0.16246883 Ry

     total magnetization       =    21.75 Bohr mag/cell
     absolute magnetization    =    25.45 Bohr mag/cell

     convergence has been achieved in  16 iterations

     Forces acting on atoms (Ry/au):

     negative rho (up, down):  2.976E-04 2.300E-04
     atom    1 type  1   force =     0.00053925   -0.00032142    0.00551934
     atom    2 type  1   force =    -0.00053642    0.00136602   -0.00288213
     atom    3 type  1   force =     0.00006618    0.00003273    0.00029504
     atom    4 type  1   force =     0.00051655    0.00029728   -0.00023133
     atom    5 type  1   force =    -0.00000754    0.00063053    0.00552048
     atom    6 type  1   force =     0.00091373   -0.00114219   -0.00288316
     atom    7 type  1   force =     0.00002250   -0.00021953   -0.00026669
     atom    8 type  1   force =    -0.00049584    0.00029508   -0.00120713
     atom    9 type  1   force =    -0.00010421   -0.00006229    0.00450576
     atom   10 type  1   force =    -0.00002168   -0.00001863   -0.00562066
     atom   11 type  1   force =    -0.00018472    0.00013168   -0.00026038
     atom   12 type  1   force =     0.00000666   -0.00057549   -0.00120672
     atom   13 type  1   force =    -0.00000595    0.00010702    0.00449473
     atom   14 type  1   force =     0.00053027    0.00138787   -0.00288987
     atom   15 type  1   force =    -0.00000675    0.00020792   -0.00095058
     atom   16 type  1   force =    -0.00052060    0.00027931   -0.00023279
     atom   17 type  1   force =     0.00002153    0.00001586    0.00461745
     atom   18 type  1   force =     0.00001483    0.00001339   -0.00310042
     atom   19 type  1   force =     0.00018238   -0.00010646   -0.00095347
     atom   20 type  1   force =    -0.00001783   -0.00060435   -0.00022869
     atom   21 type  1   force =     0.00009088   -0.00006150    0.00449692
     atom   22 type  1   force =     0.00146624   -0.00024006   -0.00288973
     atom   23 type  1   force =     0.00019903    0.00011365   -0.00023202
     atom   24 type  1   force =     0.00045476    0.00026625   -0.00148113
     atom   25 type  1   force =    -0.00053296   -0.00030907    0.00551134
     atom   26 type  1   force =     0.00000678    0.00000480   -0.00522568
     atom   27 type  1   force =    -0.00006034    0.00001482    0.00028660
     atom   28 type  1   force =     0.00001061   -0.00055476   -0.00146020
     atom   29 type  1   force =    -0.00001401    0.00002729    0.00461818
     atom   30 type  1   force =    -0.00092778   -0.00112724   -0.00289589
     atom   31 type  1   force =    -0.00021393   -0.00011755   -0.00096781
     atom   32 type  1   force =     0.00052737    0.00030549   -0.00119132
     atom   33 type  1   force =     0.00001372   -0.00002624    0.00461912
     atom   34 type  1   force =    -0.00144452   -0.00024329   -0.00289482
     atom   35 type  1   force =    -0.00001299   -0.00006340    0.00028398
     atom   36 type  1   force =    -0.00047057    0.00028779   -0.00146652
     atom   37 type  2   force =    -0.00000464    0.00000868   -0.00114981

     Total force =     0.019173     Total SCF correction =     0.001180
 !ASE

     Writing output data file calc.save

     General routines

     Parallel routines

   This run was terminated on:  18:58: 9  10Mar2017

   JOB DONE.