     Program PWSCF v.5.1rc2 (svn rev. ) starts on 10Mar2017 at 15: 1:11

     Current dimensions of program PWSCF are:
     Max number of different atomic species (ntypx) = 10
     Max number of k-points (npk) =  40000
     Max angular momentum in pseudopotentials (lmaxx) =  3
     Presently no symmetry can be used with electric field

     IMPORTANT: XC functional enforced from input :
     Exchange-correlation      = RPBE ( 1  4 28  4 0)
     Any further DFT definition will be discarded
     Please, verify this is what you really want

               file Ni.UPF: wavefunction(s)  3D renormalized

     Subspace diagonalization in iterative solution of the eigenvalue problem:
     a serial algorithm will be used

     Generating pointlists ...
     new r_m :   0.4125 (alat units)  0.7795 (a.u.) for type    1
     new r_m :   0.4125 (alat units)  0.7795 (a.u.) for type    2

     bravais-lattice index     =            0
     lattice parameter (alat)  =       1.8897  a.u.
     unit-cell volume          =    7046.4111 (a.u.)^3
     number of atoms/cell      =           37
     number of atomic types    =            2
     number of electrons       =       366.00
     number of Kohn-Sham states=          283
     kinetic-energy cutoff     =      44.0992  Ry
     charge density cutoff     =     440.9919  Ry
     convergence threshold     =      7.3E-07
     mixing beta               =       0.1000
     number of iterations used =           10  plain     mixing
     Exchange-correlation      = RPBE ( 1  4 28  4 0)
     nstep                     =           50

     celldm(1)=   1.889726  celldm(2)=   0.000000  celldm(3)=   0.000000
     celldm(4)=   0.000000  celldm(5)=   0.000000  celldm(6)=   0.000000

     crystal axes: (cart. coord. in units of alat)
               a(1) = (   7.548011   0.000000   0.000000 )
               a(2) = (  -3.774005   6.536769   0.000000 )
               a(3) = (   0.000000   0.000000  21.162925 )

     reciprocal axes: (cart. coord. in units 2 pi/alat)
               b(1) = (  0.132485  0.076490  0.000000 )
               b(2) = (  0.000000  0.152981  0.000000 )
               b(3) = (  0.000000  0.000000  0.047252 )

     PseudoPot. # 1 for Ni read from file:
     /home/alatimer/bin/psp/esp_psp_w_gbrvRu/Ni.UPF
     MD5 check sum: 8b2449ee0060d9c33484ccd47bb60870
     Pseudo is Ultrasoft + core correction, Zval = 10.0
     Generated using "atomic" code by A. Dal Corso  v.5.0.2 svn rev. 9415
     Using radial grid of 1195 points,  6 beta functions with:
                l(1) =   0
                l(2) =   0
                l(3) =   1
                l(4) =   1
                l(5) =   2
                l(6) =   2
     Q(r) pseudized with 0 coefficients

     PseudoPot. # 2 for  O read from file:
     /home/alatimer/bin/psp/esp_psp_w_gbrvRu/O.UPF
     MD5 check sum: e057bbcf3229fb5d8c36c0c92f9568b4
     Pseudo is Ultrasoft + core correction, Zval =  6.0
     Generated using "atomic" code by A. Dal Corso  v.5.0.2 svn rev. 9415
     Using radial grid of 1095 points,  4 beta functions with:
                l(1) =   0
                l(2) =   0
                l(3) =   1
                l(4) =   1
     Q(r) pseudized with 0 coefficients

     atomic species   valence    mass     pseudopotential
        Ni1           10.00    58.69340     Ni( 1.00)
        O1             6.00    15.99940      O( 1.00)

     Starting magnetic structure
     atomic species   magnetization
        Ni1          0.300
        O1           0.500

     No symmetry found

   Cartesian axes

     site n.     atom                  positions (alat units)
         1           Ni1 tau(   1) = (   0.0000000   0.0000000   7.5000000  )
         2           Ni1 tau(   2) = (   1.2580018   0.7263077   9.5543084  )
         3           Ni1 tau(   3) = (   0.0000000   1.4526154  11.6086168  )
         4           Ni1 tau(   4) = (   1.2580018   2.1789231  13.6629252  )
         5           Ni1 tau(   5) = (  -1.2580018   2.1789231   7.5000000  )
         6           Ni1 tau(   6) = (   0.0000000   2.9052308   9.5543084  )
         7           Ni1 tau(   7) = (  -1.2580018   3.6315385  11.6086168  )
         8           Ni1 tau(   8) = (  -0.0000000   4.3578462  13.6629252  )
         9           Ni1 tau(   9) = (  -2.5160037   4.3578462   7.5000000  )
        10           Ni1 tau(  10) = (  -1.2580018   5.0841539   9.5543084  )
        11           Ni1 tau(  11) = (  -2.5160037   5.8104616  11.6086168  )
        12           Ni1 tau(  12) = (  -1.2580018   6.5367693  13.6629252  )
        13           Ni1 tau(  13) = (   2.5160037   0.0000000   7.5000000  )
        14           Ni1 tau(  14) = (   3.7740055   0.7263077   9.5543084  )
        15           Ni1 tau(  15) = (   2.5160037   1.4526154  11.6086168  )
        16           Ni1 tau(  16) = (   3.7740055   2.1789231  13.6629252  )
        17           Ni1 tau(  17) = (   1.2580018   2.1789231   7.5000000  )
        18           Ni1 tau(  18) = (   2.5160037   2.9052308   9.5543084  )
        19           Ni1 tau(  19) = (   1.2580018   3.6315385  11.6086168  )
        20           Ni1 tau(  20) = (   2.5160037   4.3578462  13.6629252  )
        21           Ni1 tau(  21) = (  -0.0000000   4.3578462   7.5000000  )
        22           Ni1 tau(  22) = (   1.2580018   5.0841539   9.5543084  )
        23           Ni1 tau(  23) = (  -0.0000000   5.8104616  11.6086168  )
        24           Ni1 tau(  24) = (   1.2580018   6.5367693  13.6629252  )
        25           Ni1 tau(  25) = (   5.0320073   0.0000000   7.5000000  )
        26           Ni1 tau(  26) = (   6.2900092   0.7263077   9.5543084  )
        27           Ni1 tau(  27) = (   5.0320073   1.4526154  11.6086168  )
        28           Ni1 tau(  28) = (   6.2900092   2.1789231  13.6629252  )
        29           Ni1 tau(  29) = (   3.7740055   2.1789231   7.5000000  )
        30           Ni1 tau(  30) = (   5.0320073   2.9052308   9.5543084  )
        31           Ni1 tau(  31) = (   3.7740055   3.6315385  11.6086168  )
        32           Ni1 tau(  32) = (   5.0320073   4.3578462  13.6629252  )
        33           Ni1 tau(  33) = (   2.5160037   4.3578462   7.5000000  )
        34           Ni1 tau(  34) = (   3.7740055   5.0841539   9.5543084  )
        35           Ni1 tau(  35) = (   2.5160037   5.8104616  11.6086168  )
        36           Ni1 tau(  36) = (   3.7740055   6.5367693  13.6629252  )
        37           O1  tau(  37) = (   3.1450046   3.2683846  14.8629252  )

     number of k points=    10  Fermi-Dirac smearing, width (Ry)=  0.0073
                       cart. coord. in units 2pi/alat
        k(    1) = (   0.0000000   0.0000000   0.0000000), wk =   0.1111111
        k(    2) = (   0.0000000   0.0509936   0.0000000), wk =   0.2222222
        k(    3) = (   0.0441617   0.0254968   0.0000000), wk =   0.2222222
        k(    4) = (   0.0441617   0.0764904   0.0000000), wk =   0.2222222
        k(    5) = (   0.0441617  -0.0254968   0.0000000), wk =   0.2222222
        k(    6) = (   0.0000000   0.0000000   0.0000000), wk =   0.1111111
        k(    7) = (   0.0000000   0.0509936   0.0000000), wk =   0.2222222
        k(    8) = (   0.0441617   0.0254968   0.0000000), wk =   0.2222222
        k(    9) = (   0.0441617   0.0764904   0.0000000), wk =   0.2222222
        k(   10) = (   0.0441617  -0.0254968   0.0000000), wk =   0.2222222

     Largest allocated arrays     est. size (Mb)     dimensions
     Largest temporary arrays     est. size (Mb)     dimensions

     Check: negative/imaginary core charge=   -0.000003    0.000000

     Initial potential from superposition of free atoms
     Check: negative starting charge=(component1):   -0.000379
     Check: negative starting charge=(component2):   -0.000199

     starting charge  365.99096, renormalised to  366.00000

     negative rho (up, down):  3.788E-04 1.986E-04

     Adding external electric field

     Computed dipole along edir(3) :
        Dipole               -0.0012 Ry au,         -0.0030 Debye
        Dipole field         -0.0000 Ry au

        Potential amp.        0.0002 Ry
        Total length         38.9923 bohr

[...]

     Starting wfc are  328 randomized atomic wfcs

     Self-consistent Calculation

     iteration #  1     ecut=    44.10 Ry     beta=0.10
     Davidson diagonalization with overlap
     ethr =  1.00E-02,  avg # of iterations =  7.0

[...]

     Magnetic moment per site:
     atom:    1    charge:    3.9486    magn:    1.1265    constr:    0.0000
     atom:    2    charge:    3.9680    magn:    1.1115    constr:    0.0000
     atom:    3    charge:    3.9682    magn:    1.1117    constr:    0.0000
     atom:    4    charge:    3.9503    magn:    1.1265    constr:    0.0000
     atom:    5    charge:    3.9486    magn:    1.1265    constr:    0.0000
     atom:    6    charge:    3.9680    magn:    1.1115    constr:    0.0000
     atom:    7    charge:    3.9681    magn:    1.1116    constr:    0.0000
     atom:    8    charge:    3.9488    magn:    1.1269    constr:    0.0000
     atom:    9    charge:    3.9492    magn:    1.1262    constr:    0.0000
     atom:   10    charge:    3.9679    magn:    1.1117    constr:    0.0000
     atom:   11    charge:    3.9681    magn:    1.1116    constr:    0.0000
     atom:   12    charge:    3.9488    magn:    1.1269    constr:    0.0000
     atom:   13    charge:    3.9490    magn:    1.1262    constr:    0.0000
     atom:   14    charge:    3.9679    magn:    1.1119    constr:    0.0000
     atom:   15    charge:    3.9684    magn:    1.1115    constr:    0.0000
     atom:   16    charge:    3.9422    magn:    1.1360    constr:    0.0000
     atom:   17    charge:    3.9491    magn:    1.1263    constr:    0.0000
     atom:   18    charge:    3.9678    magn:    1.1121    constr:    0.0000
     atom:   19    charge:    3.9684    magn:    1.1115    constr:    0.0000
     atom:   20    charge:    3.9422    magn:    1.1360    constr:    0.0000
     atom:   21    charge:    3.9490    magn:    1.1262    constr:    0.0000
     atom:   22    charge:    3.9679    magn:    1.1119    constr:    0.0000
     atom:   23    charge:    3.9684    magn:    1.1118    constr:    0.0000
     atom:   24    charge:    3.9488    magn:    1.1272    constr:    0.0000
     atom:   25    charge:    3.9492    magn:    1.1260    constr:    0.0000
     atom:   26    charge:    3.9683    magn:    1.1109    constr:    0.0000
     atom:   27    charge:    3.9696    magn:    1.1096    constr:    0.0000
     atom:   28    charge:    3.9491    magn:    1.1270    constr:    0.0000
     atom:   29    charge:    3.9491    magn:    1.1264    constr:    0.0000
     atom:   30    charge:    3.9681    magn:    1.1118    constr:    0.0000
     atom:   31    charge:    3.9694    magn:    1.1111    constr:    0.0000
     atom:   32    charge:    3.9501    magn:    1.1266    constr:    0.0000
     atom:   33    charge:    3.9491    magn:    1.1264    constr:    0.0000
     atom:   34    charge:    3.9681    magn:    1.1118    constr:    0.0000
     atom:   35    charge:    3.9696    magn:    1.1096    constr:    0.0000
[...]
     1.3773   1.3818   1.3894   1.4002   1.4041   1.4075   1.4121   1.4135
     1.4416   1.4535   1.4582   1.4599   1.4624   1.4654   1.4708   1.4711
     1.4797   1.4854   1.4861   1.4869   1.5651   1.5804   1.6110   1.6208
     1.6222   1.6288   1.6292   1.6366   1.6833   1.8614   1.9011   2.3274
     2.5624   2.7651   2.7703   2.7736   3.1370   3.1933   4.0464   5.1377
     5.1410   5.1445   5.3925   5.5717   6.0543   6.5662   6.8388   6.8433
     6.8667   7.0809   7.0967   7.1008   7.2133   7.5561   7.5588   7.5636
     7.6661   7.7622   7.8596   7.8720   7.9660   7.9915   8.0545   8.6718
     8.8343   8.8698   8.9353   9.6860   9.6959   9.7061   9.7077   9.7140
     9.7316   9.7851   9.7854   9.9317  10.1106  10.1121  10.1147  10.1174
    10.1230  10.2094  10.3093  10.8211  10.8405  10.8412  10.8466  10.8648
    10.8745  10.9230  11.1939  11.2186  11.2552  11.5278  11.5348  11.5478
    11.5543  11.5602  11.6305  11.6708  11.6762  11.6803  11.6831  11.6937
    11.8719  12.0705  12.3786  12.5687  12.5746  12.6265  12.6778  12.7103
    12.8661  13.2644  13.3140

[...]

 ------ SPIN DOWN ----------

[...]

     the Fermi energy is     2.1799 ev

!    total energy              =   -3656.57612977 Ry
     Harris-Foulkes estimate   =   -3656.57612998 Ry
     estimated scf accuracy    <       0.00000068 Ry

     The total energy is the sum of the following terms:

     one-electron contribution =  -24355.85855519 Ry
     hartree contribution      =   12579.77272558 Ry
     xc contribution           =   -1514.30919819 Ry
     ewald contribution        =    9633.98266401 Ry
     electric field correction =       0.00003847 Ry
     smearing contrib. (-TS)   =      -0.16380445 Ry

[...]

     convergence has been achieved in  63 iterations

     Forces acting on atoms (Ry/au):

     negative rho (up, down):  2.951E-04 2.266E-04
     atom    1 type  1   force =     0.00043663   -0.00061807    0.00532552
     atom    2 type  1   force =    -0.00069599    0.00022950   -0.00360725
     atom    3 type  1   force =     0.00119946    0.00069190    0.00615754
     atom    4 type  1   force =    -0.01015218   -0.00586140    0.00240827
     atom    5 type  1   force =    -0.00031650    0.00068670    0.00532529
     atom    6 type  1   force =    -0.00014846   -0.00071740   -0.00360739
     atom    7 type  1   force =    -0.00111197    0.00015919    0.00502775
     atom    8 type  1   force =    -0.00932133    0.00375462   -0.00932423
     atom    9 type  1   force =    -0.00013494   -0.00007726    0.00469591
     atom   10 type  1   force =     0.00002523    0.00001494   -0.00423276
     atom   11 type  1   force =    -0.00041870   -0.00104231    0.00502773
     atom   12 type  1   force =    -0.00140948   -0.00994990   -0.00932438
     atom   13 type  1   force =    -0.00016715    0.00017027    0.00487381
     atom   14 type  1   force =     0.00034594    0.00039987   -0.00357835
     atom   15 type  1   force =     0.00095684   -0.00120297   -0.00046942
     atom   16 type  1   force =     0.02733567   -0.04293443   -0.01685684
     atom   17 type  1   force =     0.00022142    0.00012778    0.00497378
     atom   18 type  1   force =    -0.00015615   -0.00008977   -0.00385350
     atom   19 type  1   force =    -0.00056279    0.00143020   -0.00046944
     atom   20 type  1   force =    -0.02351422    0.04514076   -0.01685696
     atom   21 type  1   force =     0.00006436   -0.00022944    0.00487369
     atom   22 type  1   force =     0.00052006    0.00009964   -0.00357841
     atom   23 type  1   force =     0.00068898    0.00039788    0.00415892
     atom   24 type  1   force =     0.00048209    0.00027813   -0.01064223
     atom   25 type  1   force =    -0.00008131   -0.00004740    0.00537735
     atom   26 type  1   force =     0.00137657    0.00079387   -0.00736705
     atom   27 type  1   force =    -0.00083412   -0.00111323    0.00410088
     atom   28 type  1   force =     0.00817079   -0.00404658   -0.01020292
     atom   29 type  1   force =     0.00017157    0.00001282    0.00482055
     atom   30 type  1   force =     0.00051249   -0.00062184   -0.00255069
     atom   31 type  1   force =     0.00112877    0.00065227   -0.01530519
     atom   32 type  1   force =     0.01098366    0.00634195    0.00285838
     atom   33 type  1   force =     0.00009701    0.00014268    0.00482089
     atom   34 type  1   force =    -0.00028248    0.00075531   -0.00255067
     atom   35 type  1   force =    -0.00138064   -0.00016607    0.00410069
     atom   36 type  1   force =     0.00058114    0.00909921   -0.01020315
     atom   37 type  2   force =    -0.00461028   -0.00266141    0.05565390

     Total force =     0.104047     Total SCF correction =     0.001754
 !ASE

     Writing output data file calc.save
     Check: negative starting charge=(component1):   -0.000577
     NEW-OLD atomic charge density approx. for the potential

     Check: negative/imaginary core charge=   -0.000003    0.000000
     Check: negative starting charge=(component1):   -0.000582

[...]

     iteration #  1     ecut=    44.10 Ry     beta=0.10
     Davidson diagonalization with overlap
     c_bands:  1 eigenvalues not converged
     c_bands:  2 eigenvalues not converged
     c_bands:  1 eigenvalues not converged
     c_bands:  1 eigenvalues not converged
     c_bands:  1 eigenvalues not converged
     c_bands:  2 eigenvalues not converged
     c_bands:  1 eigenvalues not converged
     c_bands:  1 eigenvalues not converged
     ethr =  2.17E-10,  avg # of iterations = 17.8

[...]

     iteration #  1     ecut=    44.10 Ry     beta=0.10
     Davidson diagonalization with overlap
     c_bands:  1 eigenvalues not converged
     c_bands:  1 eigenvalues not converged
     c_bands:  1 eigenvalues not converged
     c_bands:  1 eigenvalues not converged
     ethr =  2.56E-10,  avg # of iterations = 17.1

[...]

     Total force =     0.025307     Total SCF correction =     0.003302
     SCF correction compared to forces is large: reduce conv_thr to get better values
 !ASE

[...]

     Total force =     0.022328     Total SCF correction =     0.003496
     SCF correction compared to forces is large: reduce conv_thr to get better values
 !ASE

     Writing output data file calc.save
     Check: negative starting charge=(component1):   -0.000579
     NEW-OLD atomic charge density approx. for the potential

     Check: negative/imaginary core charge=   -0.000003    0.000000
     Check: negative starting charge=(component1):   -0.000579

[...]

     Self-consistent Calculation

[...]

     total energy              =   -3656.62431370 Ry
     Harris-Foulkes estimate   =   -3656.62431022 Ry
     estimated scf accuracy    <       0.00003175 Ry

[...]

     iteration # 16     ecut=    44.10 Ry     beta=0.10
     Davidson diagonalization with overlap
     ethr =  3.54E-10,  avg # of iterations =  1.5

     negative rho (up, down):  2.962E-04 2.291E-04

[...]

     Adding external electric field

     Computed dipole along edir(3) :
        Dipole               -0.1484 Ry au,         -0.3773 Debye
        Dipole field         -0.0003 Ry au

        Potential amp.        0.0206 Ry
        Total length         38.9923 bohr

     Magnetic moment per site:
     atom:    1    charge:    3.9712    magn:    0.3792    constr:    0.0000
     atom:    2    charge:    3.9686    magn:    0.3863    constr:    0.0000
     atom:    3    charge:    3.9547    magn:    0.3620    constr:    0.0000
     atom:    4    charge:    3.8877    magn:    0.2571    constr:    0.0000
     atom:    5    charge:    3.9712    magn:    0.3792    constr:    0.0000
     atom:    6    charge:    3.9686    magn:    0.3863    constr:    0.0000
     atom:    7    charge:    3.9607    magn:    0.3818    constr:    0.0000
     atom:    8    charge:    3.9115    magn:    0.3795    constr:    0.0000
     atom:    9    charge:    3.9713    magn:    0.3732    constr:    0.0000
     atom:   10    charge:    3.9687    magn:    0.3854    constr:    0.0000
     atom:   11    charge:    3.9607    magn:    0.3818    constr:    0.0000
     atom:   12    charge:    3.9115    magn:    0.3795    constr:    0.0000
     atom:   13    charge:    3.9713    magn:    0.3730    constr:    0.0000
     atom:   14    charge:    3.9686    magn:    0.3866    constr:    0.0000
     atom:   15    charge:    3.9626    magn:    0.3911    constr:    0.0000
     atom:   16    charge:    3.8559    magn:    0.2534    constr:    0.0000
     atom:   17    charge:    3.9713    magn:    0.3776    constr:    0.0000
     atom:   18    charge:    3.9689    magn:    0.4017    constr:    0.0000
     atom:   19    charge:    3.9626    magn:    0.3911    constr:    0.0000
     atom:   20    charge:    3.8559    magn:    0.2534    constr:    0.0000
     atom:   21    charge:    3.9713    magn:    0.3730    constr:    0.0000
     atom:   22    charge:    3.9686    magn:    0.3866    constr:    0.0000
     atom:   23    charge:    3.9562    magn:    0.3809    constr:    0.0000
     atom:   24    charge:    3.9183    magn:    0.3823    constr:    0.0000
     atom:   25    charge:    3.9712    magn:    0.3792    constr:    0.0000
     atom:   26    charge:    3.9694    magn:    0.3789    constr:    0.0000
     atom:   27    charge:    3.9636    magn:    0.3613    constr:    0.0000
     atom:   28    charge:    3.9254    magn:    0.3831    constr:    0.0000
     atom:   29    charge:    3.9713    magn:    0.3777    constr:    0.0000
     atom:   30    charge:    3.9686    magn:    0.3863    constr:    0.0000
     atom:   31    charge:    3.9659    magn:    0.3915    constr:    0.0000
     atom:   32    charge:    3.8516    magn:    0.3732    constr:    0.0000
     atom:   33    charge:    3.9713    magn:    0.3777    constr:    0.0000
     atom:   34    charge:    3.9686    magn:    0.3863    constr:    0.0000
     atom:   35    charge:    3.9636    magn:    0.3613    constr:    0.0000
     atom:   36    charge:    3.9254    magn:    0.3831    constr:    0.0000
     atom:   37    charge:    0.5325    magn:    0.0123    constr:    0.0000

     End of self-consistent calculation

 ------ SPIN UP ------------

[...]

 ------ SPIN DOWN ----------

[...]

          k = 0.0442-0.0255 0.0000 ( 34862 PWs)   bands (ev):

   -16.7700  -5.8951  -4.7588  -4.5866  -3.7796  -3.7258  -3.6395  -3.2480
    -3.1650  -2.9731  -2.7205  -2.5116  -2.4480  -2.1960  -2.1859  -1.9947
    -1.9415  -1.8577  -1.7805  -1.7317  -1.7204  -1.4320  -1.4260  -1.3190
    -1.3006  -1.2904  -1.2571  -1.2330  -1.2006  -1.1793  -1.1492  -1.0894
    -0.9663  -0.9255  -0.9147  -0.9062  -0.8836  -0.7733  -0.7616  -0.7491
    -0.7362  -0.7118  -0.6699  -0.6149  -0.5894  -0.5441  -0.4743  -0.4528
    -0.4306  -0.3996  -0.3392  -0.3308  -0.2905  -0.2835  -0.2685  -0.2496
    -0.2248  -0.1310  -0.1237  -0.0988  -0.0891  -0.0292   0.0122   0.0302
     0.1315   0.1424   0.1589   0.1659   0.1883   0.2196   0.2233   0.2612
     0.3073   0.3120   0.3203   0.3469   0.3672   0.3970   0.4114   0.4256
     0.4378   0.4975   0.5141   0.5351   0.5483   0.5654   0.5787   0.5966
     0.6033   0.6126   0.6352   0.6526   0.6683   0.6747   0.6956   0.7098
     0.7166   0.7263   0.7624   0.7668   0.7790   0.8143   0.8180   0.8301
     0.8481   0.8526   0.8710   0.8847   0.9043   0.9197   0.9350   0.9409
     0.9517   0.9975   1.0176   1.0396   1.0656   1.0803   1.1139   1.1523
     1.1593   1.2231   1.2368   1.2573   1.2647   1.2815   1.3010   1.3318
     1.3436   1.3503   1.3587   1.3792   1.3955   1.4320   1.4597   1.4957
     1.5215   1.5729   1.5871   1.5968   1.6037   1.6118   1.6790   1.6917
     1.7127   1.7287   1.7383   1.7589   1.7696   1.7735   1.7944   1.8202
     1.8295   1.8553   1.8932   1.9075   1.9177   1.9371   1.9450   1.9568
     1.9747   1.9921   2.0241   2.0249   2.0587   2.0716   2.0850   2.1135
     2.1235   2.1510   2.1515   2.1667   2.1684   2.2006   2.2140   2.2401
     2.2675   2.2689   2.2745   2.2945   2.3006   2.3041   2.3315   2.3344
     2.3668   2.3920   2.3972   2.4103   2.4347   2.4571   2.4671   2.5227
     2.5667   2.6279   2.8328   2.8959   2.9194   2.9788   3.1134   3.1431
     3.3245   3.3486   3.6483   3.8617   4.1584   4.2751   4.3167   4.6176
     4.6337   4.8166   5.0782   5.1669   5.3051   5.4890   5.7779   5.9808
     6.3899   6.5424   6.6378   6.8169   6.9484   7.0718   7.2244   7.4645
     7.6097   7.7825   8.1171   8.2750   8.4395   8.5715   8.9776   9.0073
     9.0545   9.1321   9.1943   9.1964   9.2424   9.3335   9.3633   9.4293
     9.5426   9.5829   9.6407   9.8292  10.0220  10.1122  10.3000  10.4304
    10.4849  10.6693  10.7157  10.7687  10.8929  11.0567  11.0770  11.1671
    11.2397  11.3066  11.4033  11.5530  11.5929  11.6662  11.7643  11.8652
    12.0403  12.0535  12.2456  12.2777  12.3529  12.5096  12.5696  12.6293
    12.7083  12.8613  12.9827  13.0880  13.1107  13.1696  13.2204  13.4043
    13.4520  13.4686  13.5464

     the Fermi energy is     2.1716 ev

!    total energy              =   -3656.62434037 Ry
     Harris-Foulkes estimate   =   -3656.62431242 Ry
     estimated scf accuracy    <       0.00000029 Ry

     The total energy is the sum of the following terms:

     one-electron contribution =  -24413.51385042 Ry
     hartree contribution      =   12608.48348534 Ry
     xc contribution           =   -1514.31964485 Ry
     ewald contribution        =    9662.88785759 Ry
     electric field correction =       0.00003930 Ry
     smearing contrib. (-TS)   =      -0.16222733 Ry

     total magnetization       =    21.75 Bohr mag/cell
     absolute magnetization    =    25.43 Bohr mag/cell

     convergence has been achieved in  16 iterations

     Forces acting on atoms (Ry/au):

     negative rho (up, down):  2.962E-04 2.291E-04
     atom    1 type  1   force =     0.00055118   -0.00034024    0.00554052
     atom    2 type  1   force =     0.00023841    0.00187990   -0.00425859
     atom    3 type  1   force =    -0.00051301   -0.00029445    0.00028311
     atom    4 type  1   force =     0.00003792    0.00002347   -0.00181670
     atom    5 type  1   force =    -0.00001789    0.00065204    0.00554542
     atom    6 type  1   force =     0.00174770   -0.00073151   -0.00425764
     atom    7 type  1   force =     0.00002331    0.00039680   -0.00007508
     atom    8 type  1   force =    -0.00057287   -0.00031491    0.00015767
     atom    9 type  1   force =    -0.00009045   -0.00005711    0.00448917
     atom   10 type  1   force =     0.00070064    0.00040281   -0.00691327
     atom   11 type  1   force =     0.00035409   -0.00017980   -0.00007449
     atom   12 type  1   force =    -0.00055851   -0.00033983    0.00015914
     atom   13 type  1   force =     0.00006274    0.00015275    0.00449759
     atom   14 type  1   force =     0.00120388    0.00195622   -0.00404274
     atom   15 type  1   force =    -0.00008417   -0.00061099   -0.00060667
     atom   16 type  1   force =    -0.00041771   -0.00063615   -0.00058305
     atom   17 type  1   force =     0.00012376    0.00007920    0.00450055
     atom   18 type  1   force =     0.00064305    0.00037365   -0.00463926
     atom   19 type  1   force =    -0.00057227    0.00023401   -0.00060700
     atom   20 type  1   force =    -0.00076105   -0.00004449   -0.00058307
     atom   21 type  1   force =     0.00016605   -0.00002843    0.00450415
     atom   22 type  1   force =     0.00229690    0.00006285   -0.00404180
     atom   23 type  1   force =    -0.00010920   -0.00006554    0.00005636
     atom   24 type  1   force =    -0.00119492   -0.00069058   -0.00002440
     atom   25 type  1   force =    -0.00048551   -0.00028253    0.00563752
     atom   26 type  1   force =     0.00070079    0.00040479   -0.00617949
     atom   27 type  1   force =    -0.00012426    0.00000937   -0.00012194
     atom   28 type  1   force =    -0.00069129   -0.00031833   -0.00005799
     atom   29 type  1   force =     0.00002621    0.00004122    0.00455483
     atom   30 type  1   force =    -0.00008301   -0.00090481   -0.00437526
     atom   31 type  1   force =    -0.00032841   -0.00018883    0.00109000
     atom   32 type  1   force =    -0.00042522   -0.00024625    0.00064008
     atom   33 type  1   force =     0.00004240   -0.00000013    0.00455317
     atom   34 type  1   force =    -0.00082769    0.00038001   -0.00437482
     atom   35 type  1   force =    -0.00005538   -0.00011398   -0.00012212
     atom   36 type  1   force =    -0.00062250   -0.00043934   -0.00005792
     atom   37 type  2   force =    -0.00038370   -0.00022087    0.00160403

     Total force =     0.021658     Total SCF correction =     0.001972
 !ASE

     Writing output data file calc.save

     General routines

     Parallel routines

   This run was terminated on:   1:45:37  11Mar2017

   JOB DONE.