     Program PWSCF v.5.1rc2 (svn rev. ) starts on 20Apr2018 at 13:26: 2

     Current dimensions of program PWSCF are:
     Max number of different atomic species (ntypx) = 10
     Max number of k-points (npk) =  40000
     Max angular momentum in pseudopotentials (lmaxx) =  3
     Presently no symmetry can be used with electric field

     IMPORTANT: XC functional enforced from input :
     Exchange-correlation      = RPBE ( 1  4 28  4 0)
     Any further DFT definition will be discarded
     Please, verify this is what you really want

     Subspace diagonalization in iterative solution of the eigenvalue problem:
     a serial algorithm will be used

     Generating pointlists ...
     new r_m :   0.4125 (alat units)  0.7795 (a.u.) for type    1
     new r_m :   0.4125 (alat units)  0.7795 (a.u.) for type    2

     bravais-lattice index     =            0
     lattice parameter (alat)  =       1.8897  a.u.
     unit-cell volume          =   12682.1321 (a.u.)^3
     number of atoms/cell      =           37
     number of atomic types    =            2
     number of electrons       =       330.00
     number of Kohn-Sham states=          265
     kinetic-energy cutoff     =      44.0992  Ry
     charge density cutoff     =     440.9919  Ry
     convergence threshold     =      7.3E-07
     mixing beta               =       0.1000
     number of iterations used =           10  plain     mixing
     Exchange-correlation      = RPBE ( 1  4 28  4 0)
     nstep                     =           50

     celldm(1)=   1.889726  celldm(2)=   0.000000  celldm(3)=   0.000000
     celldm(4)=   0.000000  celldm(5)=   0.000000  celldm(6)=   0.000000

     crystal axes: (cart. coord. in units of alat)
               a(1) = (   6.191574   0.000000   0.000000 )
               a(2) = (   0.000000   7.583099   0.000000 )
               a(3) = (   0.000000   0.000000  40.026524 )

     reciprocal axes: (cart. coord. in units 2 pi/alat)
               b(1) = (  0.161510  0.000000  0.000000 )
               b(2) = (  0.000000  0.131872  0.000000 )
               b(3) = (  0.000000  0.000000  0.024983 )

     PseudoPot. # 1 for Co read from file:
     /home/alatimer/bin/psp/esp_psp_w_gbrvRu/Co.UPF
     MD5 check sum: f36dda9fe147c5f42efc2a4f7ec0da3d
     Pseudo is Ultrasoft + core correction, Zval =  9.0
     Generated by new atomic code, or converted to UPF format
     Using radial grid of  937 points,  3 beta functions with:
                l(1) =   1
                l(2) =   2
                l(3) =   2
     Q(r) pseudized with  8 coefficients,  rinner =    1.000   1.000   1.000
                                                       1.000   1.000

     PseudoPot. # 2 for  O read from file:
     /home/alatimer/bin/psp/esp_psp_w_gbrvRu/O.UPF
     MD5 check sum: e057bbcf3229fb5d8c36c0c92f9568b4
     Pseudo is Ultrasoft + core correction, Zval =  6.0
     Generated using "atomic" code by A. Dal Corso  v.5.0.2 svn rev. 9415
     Using radial grid of 1095 points,  4 beta functions with:
                l(1) =   0
                l(2) =   0
                l(3) =   1
                l(4) =   1
     Q(r) pseudized with 0 coefficients

     atomic species   valence    mass     pseudopotential
        Co1            9.00    58.93320     Co( 1.00)
        O1             6.00    15.99940      O( 1.00)

     Starting magnetic structure
     atomic species   magnetization
        Co1          0.444
        O1           0.667

     No symmetry found

   Cartesian axes

     site n.     atom                  positions (alat units)
         1           Co1 tau(   1) = (   4.1277161   1.2638498  24.0265242  )
         2           Co1 tau(   2) = (   4.1277161   3.7915494  24.0265242  )
         3           Co1 tau(   3) = (   4.1277161   6.3192490  24.0265242  )
         4           Co1 tau(   4) = (   2.0638581   0.0000000  23.2968402  )
         5           Co1 tau(   5) = (   2.0638581   2.5276996  23.2968402  )
         6           Co1 tau(   6) = (   2.0638581   5.0553992  23.2968402  )
         7           Co1 tau(   7) = (   0.0000000   1.2638498  22.5671562  )
         8           Co1 tau(   8) = (   0.0000000   3.7915494  22.5671562  )
         9           Co1 tau(   9) = (   0.0000000   6.3192490  22.5671562  )
        10           Co1 tau(  10) = (   4.1277161   0.0000000  21.8374721  )
        11           Co1 tau(  11) = (   4.1277161   2.5276996  21.8374721  )
        12           Co1 tau(  12) = (   4.1277161   5.0553992  21.8374721  )
        13           Co1 tau(  13) = (   2.0638581   1.2638498  21.1077881  )
        14           Co1 tau(  14) = (   2.0638581   3.7915494  21.1077881  )
        15           Co1 tau(  15) = (   2.0638581   6.3192490  21.1077881  )
        16           Co1 tau(  16) = (   0.0000000   0.0000000  20.3781041  )
        17           Co1 tau(  17) = (   0.0000000   2.5276996  20.3781041  )
        18           Co1 tau(  18) = (   0.0000000   5.0553992  20.3781041  )
        19           Co1 tau(  19) = (   4.1277161   1.2638498  19.6484201  )
        20           Co1 tau(  20) = (   4.1277161   3.7915494  19.6484201  )
        21           Co1 tau(  21) = (   4.1277161   6.3192490  19.6484201  )
        22           Co1 tau(  22) = (   2.0638581   0.0000000  18.9187361  )
        23           Co1 tau(  23) = (   2.0638581   2.5276996  18.9187361  )
        24           Co1 tau(  24) = (   2.0638581   5.0553992  18.9187361  )
        25           Co1 tau(  25) = (   0.0000000   1.2638498  18.1890521  )
        26           Co1 tau(  26) = (   0.0000000   3.7915494  18.1890521  )
        27           Co1 tau(  27) = (   0.0000000   6.3192490  18.1890521  )
        28           Co1 tau(  28) = (   4.1277161   0.0000000  17.4593680  )
        29           Co1 tau(  29) = (   4.1277161   2.5276996  17.4593680  )
        30           Co1 tau(  30) = (   4.1277161   5.0553992  17.4593680  )
        31           Co1 tau(  31) = (   2.0638581   1.2638498  16.7296840  )
        32           Co1 tau(  32) = (   2.0638581   3.7915494  16.7296840  )
        33           Co1 tau(  33) = (   2.0638581   6.3192490  16.7296840  )
        34           Co1 tau(  34) = (   0.0000000   0.0000000  16.0000000  )
        35           Co1 tau(  35) = (   0.0000000   2.5276996  16.0000000  )
        36           Co1 tau(  36) = (   0.0000000   5.0553992  16.0000000  )
        37           O1  tau(  37) = (   0.0000000   1.2638498  24.2671562  )

     number of k points=    10  Fermi-Dirac smearing, width (Ry)=  0.0073
                       cart. coord. in units 2pi/alat
        k(    1) = (   0.0000000   0.0000000   0.0000000), wk =   0.1111111
        k(    2) = (   0.0000000   0.0439574   0.0000000), wk =   0.2222222
        k(    3) = (   0.0538366   0.0000000   0.0000000), wk =   0.2222222
        k(    4) = (   0.0538366   0.0439574   0.0000000), wk =   0.2222222
        k(    5) = (   0.0538366  -0.0439574   0.0000000), wk =   0.2222222
        k(    6) = (   0.0000000   0.0000000   0.0000000), wk =   0.1111111
        k(    7) = (   0.0000000   0.0439574   0.0000000), wk =   0.2222222
        k(    8) = (   0.0538366   0.0000000   0.0000000), wk =   0.2222222
        k(    9) = (   0.0538366   0.0439574   0.0000000), wk =   0.2222222
        k(   10) = (   0.0538366  -0.0439574   0.0000000), wk =   0.2222222

     Largest allocated arrays     est. size (Mb)     dimensions
     Largest temporary arrays     est. size (Mb)     dimensions

     Check: negative/imaginary core charge=   -0.000002    0.000000

     Initial potential from superposition of free atoms
     Check: negative starting charge=(component1):   -0.004345
     Check: negative starting charge=(component2):   -0.001667

     starting charge  329.99032, renormalised to  330.00000

     negative rho (up, down):  4.345E-03 1.667E-03

     Adding external electric field

     Computed dipole along edir(3) :
        Dipole               -0.0014 Ry au,         -0.0036 Debye
        Dipole field         -0.0000 Ry au

        Potential amp.        0.0002 Ry
        Total length         73.7482 bohr

[...]

     Starting wfc are  328 randomized atomic wfcs

     Self-consistent Calculation

     iteration #  1     ecut=    44.10 Ry     beta=0.10
     Davidson diagonalization with overlap
     ethr =  1.00E-02,  avg # of iterations =  8.0

[...]

     Magnetic moment per site:
     atom:    1    charge:    3.1750    magn:    1.4235    constr:    0.0000
     atom:    2    charge:    3.1752    magn:    1.4227    constr:    0.0000
     atom:    3    charge:    3.1752    magn:    1.4227    constr:    0.0000
     atom:    4    charge:    3.2029    magn:    1.3964    constr:    0.0000
     atom:    5    charge:    3.2029    magn:    1.3964    constr:    0.0000
     atom:    6    charge:    3.2027    magn:    1.3961    constr:    0.0000
     atom:    7    charge:    3.2154    magn:    1.3841    constr:    0.0000
     atom:    8    charge:    3.2162    magn:    1.3824    constr:    0.0000
     atom:    9    charge:    3.2162    magn:    1.3824    constr:    0.0000
     atom:   10    charge:    3.2306    magn:    1.3681    constr:    0.0000
     atom:   11    charge:    3.2306    magn:    1.3681    constr:    0.0000
     atom:   12    charge:    3.2301    magn:    1.3681    constr:    0.0000
     atom:   13    charge:    3.2318    magn:    1.3686    constr:    0.0000
     atom:   14    charge:    3.2305    magn:    1.3691    constr:    0.0000
     atom:   15    charge:    3.2305    magn:    1.3691    constr:    0.0000
     atom:   16    charge:    3.2315    magn:    1.3672    constr:    0.0000
     atom:   17    charge:    3.2315    magn:    1.3672    constr:    0.0000
     atom:   18    charge:    3.2311    magn:    1.3689    constr:    0.0000
     atom:   19    charge:    3.2305    magn:    1.3684    constr:    0.0000
     atom:   20    charge:    3.2303    magn:    1.3684    constr:    0.0000
     atom:   21    charge:    3.2304    magn:    1.3683    constr:    0.0000
     atom:   22    charge:    3.2308    magn:    1.3691    constr:    0.0000
     atom:   23    charge:    3.2308    magn:    1.3691    constr:    0.0000
     atom:   24    charge:    3.2306    magn:    1.3690    constr:    0.0000
     atom:   25    charge:    3.2306    magn:    1.3681    constr:    0.0000
     atom:   26    charge:    3.2302    magn:    1.3684    constr:    0.0000
     atom:   27    charge:    3.2302    magn:    1.3684    constr:    0.0000
     atom:   28    charge:    3.2163    magn:    1.3814    constr:    0.0000
     atom:   29    charge:    3.2163    magn:    1.3814    constr:    0.0000
     atom:   30    charge:    3.2159    magn:    1.3813    constr:    0.0000
     atom:   31    charge:    3.2032    magn:    1.3954    constr:    0.0000
     atom:   32    charge:    3.2030    magn:    1.3955    constr:    0.0000
     atom:   33    charge:    3.2030    magn:    1.3955    constr:    0.0000
     atom:   34    charge:    3.1749    magn:    1.4230    constr:    0.0000
     atom:   35    charge:    3.1749    magn:    1.4230    constr:    0.0000
     atom:   36    charge:    3.1749    magn:    1.4229    constr:    0.0000
[...]
    -3.6382  -3.6367  -3.6192  -3.5769  -3.5544  -3.5270  -3.5247  -3.4789
    -3.4725  -3.4633  -3.4593  -3.4317  -3.3841  -3.3389  -3.3345  -3.3141
    -3.2680  -3.2660  -3.2620  -3.2422  -3.2317  -3.2244  -3.2240  -3.1958
    -3.1626  -3.1429  -3.1324  -3.1198  -3.1093  -3.0759  -3.0440  -3.0306
    -3.0301  -3.0221  -3.0180  -3.0161  -2.9812  -2.9792  -2.9680  -2.9623
    -2.9540  -2.9533  -2.8873  -2.8849  -2.8497  -2.8410  -2.8410  -2.8281
    -2.7829  -2.7690  -2.7505  -2.7314  -2.7070  -2.6658  -2.6651  -2.6458
    -2.6375  -2.6272  -2.6042  -2.5639  -2.5466  -2.5315  -2.4859  -2.4531
    -2.4393  -2.4267  -2.4259  -2.4202  -2.4011  -2.3561  -2.2900  -2.2569
    -2.2537  -2.2427  -2.2229  -2.1782  -2.1527  -2.1443  -2.1341  -2.1272
    -2.1194  -2.1174  -2.1106  -2.1029  -2.0758  -2.0404  -2.0259  -2.0210
    -1.9988  -1.9703  -1.9692  -1.9553  -1.9324  -1.9208  -1.9104  -1.9026
    -1.8993  -1.8916  -1.8787  -1.8311  -1.8226  -1.7975  -1.7649  -1.7433
    -1.7225  -1.7094  -1.6821  -1.6774  -1.6670  -1.6434  -1.6257  -1.6105
    -1.6060  -1.5994  -1.5934  -1.5860  -1.5572  -1.5415  -1.5353  -1.5040
    -1.4981  -1.4875  -1.4762  -1.4723  -1.3996  -1.3645  -1.3473  -1.2906
    -1.2647  -1.0302  -0.7694  -0.6681  -0.6097  -0.3016   0.0687   0.4427
     0.4781   0.5484   0.5992   0.6569   0.8296   0.8459   0.9026   1.2346
     1.3652   1.4009   1.5292   1.7336   1.9871   2.3099   2.6174   2.8017
     2.8177   2.9172   3.0421   3.2046   3.3195   3.4472   3.5724   3.6219
     3.8631   4.0135   4.1185   4.2451   4.5975   4.7420   4.7802   4.8404
     5.0136   5.0853   5.1023   5.5767   5.8300   5.8582   5.9902   6.0152
     6.0254   6.0824   6.1006   6.1106   6.1222   6.2331   6.3943   6.4710
     6.4983   6.5203   6.5293   6.6290   6.7045   6.9127   6.9491   7.1409
     7.1698   7.1956   7.2235   7.2755   7.3076   7.3579   7.4055   7.4130
     7.4717

[...]

 ------ SPIN DOWN ----------

[...]

     the Fermi energy is    -0.5393 ev

!    total energy              =   -2918.84666717 Ry
     Harris-Foulkes estimate   =   -2918.84666253 Ry
     estimated scf accuracy    <       0.00000066 Ry

     The total energy is the sum of the following terms:

     one-electron contribution =  -62221.75573527 Ry
     hartree contribution      =   31411.35867702 Ry
     xc contribution           =   -1336.14217837 Ry
     ewald contribution        =   29227.80225625 Ry
     electric field correction =       0.00000763 Ry
     smearing contrib. (-TS)   =      -0.10969443 Ry

[...]

     convergence has been achieved in  50 iterations

     Forces acting on atoms (Ry/au):

     negative rho (up, down):  7.623E-03 1.699E-02
     atom    1 type  1   force =     0.03160401   -0.00000058   -0.01560812
     atom    2 type  1   force =    -0.00932097    0.00629951   -0.02746099
     atom    3 type  1   force =    -0.00932118   -0.00629877   -0.02746159
     atom    4 type  1   force =     0.00936808   -0.00212171   -0.00447068
     atom    5 type  1   force =     0.00936849    0.00212049   -0.00447019
     atom    6 type  1   force =     0.01173585    0.00000012   -0.01338981
     atom    7 type  1   force =    -0.00528685   -0.00000134   -0.07512669
     atom    8 type  1   force =    -0.00163154    0.01320889    0.00107280
     atom    9 type  1   force =    -0.00163136   -0.01320885    0.00107269
     atom   10 type  1   force =    -0.00686339   -0.00197749    0.01310949
     atom   11 type  1   force =    -0.00686353    0.00197575    0.01311062
     atom   12 type  1   force =    -0.00595828    0.00000044    0.01934682
     atom   13 type  1   force =    -0.00224706   -0.00000064    0.00907598
     atom   14 type  1   force =     0.00261188    0.00096502    0.00728675
     atom   15 type  1   force =     0.00261179   -0.00096341    0.00728599
     atom   16 type  1   force =     0.00277406   -0.00039035   -0.00203268
     atom   17 type  1   force =     0.00277394    0.00038882   -0.00203298
     atom   18 type  1   force =     0.00223745    0.00000177    0.00781470
     atom   19 type  1   force =     0.00008274   -0.00000144   -0.00504093
     atom   20 type  1   force =    -0.00165050    0.00065515   -0.00377471
     atom   21 type  1   force =    -0.00165034   -0.00065394   -0.00377481
     atom   22 type  1   force =    -0.00182937   -0.00017854   -0.00801039
     atom   23 type  1   force =    -0.00182955    0.00017732   -0.00801086
     atom   24 type  1   force =    -0.00187918    0.00000179   -0.00716280
     atom   25 type  1   force =     0.00357257   -0.00000151   -0.01708364
     atom   26 type  1   force =     0.00376851   -0.00013904   -0.01696132
     atom   27 type  1   force =     0.00376894    0.00014068   -0.01696098
     atom   28 type  1   force =     0.00090562    0.00034042   -0.01007280
     atom   29 type  1   force =     0.00090544   -0.00034239   -0.01007237
     atom   30 type  1   force =     0.00114394    0.00000140   -0.00987389
     atom   31 type  1   force =    -0.00765494    0.00000004    0.01264121
     atom   32 type  1   force =    -0.00777624   -0.00002264    0.01244162
     atom   33 type  1   force =    -0.00777776    0.00002556    0.01244205
     atom   34 type  1   force =     0.00360386    0.00007365    0.02705199
     atom   35 type  1   force =     0.00360334   -0.00007504    0.02705128
     atom   36 type  1   force =     0.00350794    0.00000082    0.02613179
     atom   37 type  2   force =    -0.01877643    0.00000005    0.09191746

     Total force =     0.154356     Total SCF correction =     0.002315
 !ASE

     Writing output data file calc.save
     Check: negative starting charge=(component1):   -0.006011
     NEW-OLD atomic charge density approx. for the potential

     Check: negative/imaginary core charge=   -0.000002    0.000000
     Check: negative starting charge=(component1):   -0.006416

[...]

     iteration #  1     ecut=    44.10 Ry     beta=0.10
     Davidson diagonalization with overlap
     c_bands:  1 eigenvalues not converged
     c_bands:  2 eigenvalues not converged
     c_bands:  1 eigenvalues not converged
     ethr =  4.12E-10,  avg # of iterations = 16.0

[...]

     Writing output data file calc.save
     Check: negative starting charge=(component1):   -0.006736
     NEW-OLD atomic charge density approx. for the potential

     Check: negative/imaginary core charge=   -0.000002    0.000000
     Check: negative starting charge=(component1):   -0.006721

[...]

     Self-consistent Calculation

     iteration #  1     ecut=    44.10 Ry     beta=0.10
     Davidson diagonalization with overlap
     c_bands:  1 eigenvalues not converged
     ethr =  2.92E-10,  avg # of iterations = 11.5

[...]

     total energy              =   -2918.89317035 Ry
     Harris-Foulkes estimate   =   -2918.89314326 Ry
     estimated scf accuracy    <       0.00001227 Ry

[...]

     iteration # 16     ecut=    44.10 Ry     beta=0.10
     Davidson diagonalization with overlap
     ethr =  3.47E-10,  avg # of iterations =  1.0

     negative rho (up, down):  7.818E-03 1.847E-02

[...]

     Adding external electric field

     Computed dipole along edir(3) :
        Dipole               -0.2399 Ry au,         -0.6097 Debye
        Dipole field         -0.0002 Ry au

        Potential amp.        0.0351 Ry
        Total length         73.7482 bohr

     Magnetic moment per site:
     atom:    1    charge:    3.0870    magn:    0.8615    constr:    0.0000
     atom:    2    charge:    3.0516    magn:    0.9589    constr:    0.0000
     atom:    3    charge:    3.0522    magn:    0.9591    constr:    0.0000
     atom:    4    charge:    3.1101    magn:    0.9564    constr:    0.0000
     atom:    5    charge:    3.1100    magn:    0.9563    constr:    0.0000
     atom:    6    charge:    3.0960    magn:    0.9384    constr:    0.0000
     atom:    7    charge:    2.4855    magn:    0.7313    constr:    0.0000
     atom:    8    charge:    3.1655    magn:    0.9600    constr:    0.0000
     atom:    9    charge:    3.1654    magn:    0.9600    constr:    0.0000
     atom:   10    charge:    3.1814    magn:    0.9593    constr:    0.0000
     atom:   11    charge:    3.1815    magn:    0.9592    constr:    0.0000
     atom:   12    charge:    3.1809    magn:    0.9447    constr:    0.0000
     atom:   13    charge:    3.1932    magn:    0.9469    constr:    0.0000
     atom:   14    charge:    3.1810    magn:    0.9443    constr:    0.0000
     atom:   15    charge:    3.1809    magn:    0.9443    constr:    0.0000
     atom:   16    charge:    3.1790    magn:    0.9528    constr:    0.0000
     atom:   17    charge:    3.1788    magn:    0.9527    constr:    0.0000
     atom:   18    charge:    3.1921    magn:    0.9514    constr:    0.0000
     atom:   19    charge:    3.1988    magn:    0.9480    constr:    0.0000
     atom:   20    charge:    3.1987    magn:    0.9440    constr:    0.0000
     atom:   21    charge:    3.1986    magn:    0.9440    constr:    0.0000
     atom:   22    charge:    3.1997    magn:    0.9544    constr:    0.0000
     atom:   23    charge:    3.1997    magn:    0.9544    constr:    0.0000
     atom:   24    charge:    3.1992    magn:    0.9541    constr:    0.0000
     atom:   25    charge:    3.1993    magn:    0.9553    constr:    0.0000
     atom:   26    charge:    3.1993    magn:    0.9520    constr:    0.0000
     atom:   27    charge:    3.1993    magn:    0.9520    constr:    0.0000
     atom:   28    charge:    3.2027    magn:    0.9740    constr:    0.0000
     atom:   29    charge:    3.2027    magn:    0.9740    constr:    0.0000
     atom:   30    charge:    3.2029    magn:    0.9770    constr:    0.0000
     atom:   31    charge:    3.2083    magn:    0.9906    constr:    0.0000
     atom:   32    charge:    3.2083    magn:    0.9888    constr:    0.0000
     atom:   33    charge:    3.2083    magn:    0.9888    constr:    0.0000
     atom:   34    charge:    3.2202    magn:    1.0021    constr:    0.0000
     atom:   35    charge:    3.2203    magn:    1.0021    constr:    0.0000
     atom:   36    charge:    3.2203    magn:    1.0037    constr:    0.0000
     atom:   37    charge:    0.7038    magn:    0.0281    constr:    0.0000

     End of self-consistent calculation

 ------ SPIN UP ------------

[...]

 ------ SPIN DOWN ----------

[...]

          k = 0.0538-0.0440 0.0000 ( 62686 PWs)   bands (ev):

   -18.5605  -8.3793  -7.5202  -7.2837  -7.0323  -6.5048  -6.2891  -6.1440
    -5.6293  -5.5204  -5.1553  -5.0643  -4.9731  -4.7824  -4.6975  -4.5972
    -4.5184  -4.5030  -4.4594  -4.3772  -4.3256  -4.1996  -4.0670  -4.0306
    -3.9871  -3.9042  -3.8713  -3.8462  -3.7417  -3.7162  -3.6720  -3.6409
    -3.5890  -3.5367  -3.5014  -3.4792  -3.4635  -3.4128  -3.3067  -3.2375
    -3.1947  -3.1554  -3.1397  -3.1263  -3.0875  -3.0508  -3.0177  -2.9875
    -2.9338  -2.8903  -2.8762  -2.8352  -2.8027  -2.7796  -2.7314  -2.6827
    -2.6617  -2.5901  -2.5481  -2.5239  -2.5093  -2.4689  -2.4335  -2.4266
    -2.3812  -2.3390  -2.3087  -2.2684  -2.2391  -2.2173  -2.2066  -2.1934
    -2.1836  -2.1189  -2.0872  -2.0600  -2.0336  -2.0165  -1.9958  -1.9559
    -1.9425  -1.9053  -1.8794  -1.8584  -1.8376  -1.8132  -1.7855  -1.7677
    -1.7476  -1.7250  -1.7086  -1.6806  -1.6498  -1.6088  -1.5883  -1.5609
    -1.5519  -1.5432  -1.5132  -1.4827  -1.4630  -1.4559  -1.4260  -1.4176
    -1.4003  -1.3886  -1.3612  -1.3373  -1.3327  -1.3046  -1.2841  -1.2593
    -1.2458  -1.1983  -1.1768  -1.1565  -1.1358  -1.0942  -1.0685  -1.0417
    -1.0328  -1.0104  -0.9940  -0.9671  -0.9366  -0.9149  -0.8866  -0.8711
    -0.8405  -0.8238  -0.7939  -0.7368  -0.7278  -0.6495  -0.6381  -0.6132
    -0.5835  -0.5515  -0.4975  -0.4759  -0.4605  -0.4492  -0.4326  -0.4145
    -0.3988  -0.3753  -0.3544  -0.3285  -0.3162  -0.2925  -0.2766  -0.2503
    -0.2324  -0.2094  -0.1710  -0.1674  -0.1496  -0.1262  -0.1065  -0.0899
    -0.0719  -0.0600  -0.0377  -0.0125   0.0287   0.0502   0.0577   0.0800
     0.0941   0.1252   0.1513   0.1755   0.1795   0.2164   0.2438   0.2552
     0.2670   0.2986   0.3072   0.3146   0.3178   0.3374   0.3492   0.3635
     0.3816   0.3936   0.4053   0.4300   0.4381   0.4457   0.4717   0.4843
     0.4926   0.5379   0.6027   0.6272   0.7995   0.9491   1.0123   1.1248
     1.2157   1.2477   1.3618   1.4916   1.5269   1.7035   1.9718   2.1212
     2.4480   2.5573   2.6473   2.7265   2.8434   2.9579   3.2623   3.4221
     3.5536   3.6911   3.8368   3.9288   4.0996   4.1853   4.2994   4.4208
     4.4768   4.6127   4.7300   4.7767   4.9675   5.0123   5.0451   5.0927
     5.1750   5.2146   5.3698   5.4563   5.5100   5.5796   5.5937   5.6640
     5.7527   5.8044   5.8815   6.0539   6.1316   6.2398   6.2685   6.3029
     6.3964   6.4390   6.5111   6.5641   6.5805   6.6577   6.7869   6.8275
     6.8463   6.9746   7.0084   7.0642   7.1127   7.1603   7.1831   7.3263
     7.4528

     the Fermi energy is    -0.6603 ev

!    total energy              =   -2918.89335765 Ry
     Harris-Foulkes estimate   =   -2918.89317088 Ry
     estimated scf accuracy    <       0.00000061 Ry

     The total energy is the sum of the following terms:

     one-electron contribution =  -62298.24562142 Ry
     hartree contribution      =   31448.18304103 Ry
     xc contribution           =   -1336.23514083 Ry
     ewald contribution        =   29267.51019122 Ry
     electric field correction =       0.00005701 Ry
     smearing contrib. (-TS)   =      -0.10588466 Ry

     total magnetization       =    62.70 Bohr mag/cell
     absolute magnetization    =    69.07 Bohr mag/cell

     convergence has been achieved in  16 iterations

     Forces acting on atoms (Ry/au):

     negative rho (up, down):  7.818E-03 1.847E-02
     atom    1 type  1   force =    -0.00148969   -0.00000599   -0.00072670
     atom    2 type  1   force =    -0.00051232    0.00116129   -0.00103198
     atom    3 type  1   force =    -0.00051307   -0.00116224   -0.00116045
     atom    4 type  1   force =    -0.00042819    0.00042943    0.00085490
     atom    5 type  1   force =    -0.00047025   -0.00044686    0.00092572
     atom    6 type  1   force =     0.00014855    0.00002947    0.00050864
     atom    7 type  1   force =    -0.00047510   -0.00001787    0.00086447
     atom    8 type  1   force =    -0.00109109   -0.00063795    0.00106295
     atom    9 type  1   force =    -0.00116351    0.00066145    0.00099697
     atom   10 type  1   force =    -0.00100081   -0.00040392    0.00028533
     atom   11 type  1   force =    -0.00098855    0.00028293    0.00024706
     atom   12 type  1   force =    -0.00138618    0.00012899   -0.00008500
     atom   13 type  1   force =    -0.00088648   -0.00009076    0.00035621
     atom   14 type  1   force =     0.00016230   -0.00006348    0.00004978
     atom   15 type  1   force =     0.00013756    0.00014796    0.00007868
     atom   16 type  1   force =    -0.00010901   -0.00021995    0.00067618
     atom   17 type  1   force =    -0.00015993    0.00012176    0.00061984
     atom   18 type  1   force =     0.00040047    0.00008358   -0.00038986
     atom   19 type  1   force =     0.00109900   -0.00002912   -0.00695941
     atom   20 type  1   force =     0.00385074   -0.00013915   -0.00843187
     atom   21 type  1   force =     0.00386266    0.00016456   -0.00842596
     atom   22 type  1   force =    -0.00113426    0.00098687   -0.00951199
     atom   23 type  1   force =    -0.00113380   -0.00102686   -0.00952244
     atom   24 type  1   force =     0.00106772    0.00003628   -0.01194384
     atom   25 type  1   force =     0.00320532   -0.00003533   -0.01566783
     atom   26 type  1   force =     0.00374861   -0.00233222   -0.01463034
     atom   27 type  1   force =     0.00375531    0.00236598   -0.01462908
     atom   28 type  1   force =     0.00093459    0.00005827   -0.00909829
     atom   29 type  1   force =     0.00093335   -0.00009597   -0.00910005
     atom   30 type  1   force =     0.00153430    0.00003576   -0.00943752
     atom   31 type  1   force =    -0.00784937   -0.00003066    0.01297117
     atom   32 type  1   force =    -0.00792727   -0.00029804    0.01296838
     atom   33 type  1   force =    -0.00793447    0.00033191    0.01297724
     atom   34 type  1   force =     0.00364678    0.00018527    0.02783183
     atom   35 type  1   force =     0.00365192   -0.00021517    0.02782670
     atom   36 type  1   force =     0.00362757    0.00003117    0.02705998
     atom   37 type  2   force =     0.00088662    0.00000863    0.00159061

     Total force =     0.067630     Total SCF correction =     0.002146
 !ASE

     Writing output data file calc.save

     General routines

     Parallel routines

   This run was terminated on:   4:11: 7  21Apr2018

   JOB DONE.