     Program PWSCF v.5.1rc2 (svn rev. ) starts on 23Feb2018 at 17:52:30

     Current dimensions of program PWSCF are:
     Max number of different atomic species (ntypx) = 10
     Max number of k-points (npk) =  40000
     Max angular momentum in pseudopotentials (lmaxx) =  3
     Presently no symmetry can be used with electric field

     IMPORTANT: XC functional enforced from input :
     Exchange-correlation      = RPBE ( 1  4 28  4 0)
     Any further DFT definition will be discarded
     Please, verify this is what you really want

               file Ni.UPF: wavefunction(s)  3D renormalized

     Subspace diagonalization in iterative solution of the eigenvalue problem:
     a serial algorithm will be used

     Generating pointlists ...
     new r_m :   0.4125 (alat units)  0.7795 (a.u.) for type    1
     new r_m :   0.4125 (alat units)  0.7795 (a.u.) for type    2

     bravais-lattice index     =            0
     lattice parameter (alat)  =       1.8897  a.u.
     unit-cell volume          =   10207.8337 (a.u.)^3
     number of atoms/cell      =           37
     number of atomic types    =            2
     number of electrons       =       366.00
     number of Kohn-Sham states=          283
     kinetic-energy cutoff     =      44.0992  Ry
     charge density cutoff     =     440.9919  Ry
     convergence threshold     =      7.3E-07
     mixing beta               =       0.1000
     number of iterations used =           10  plain     mixing
     Exchange-correlation      = RPBE ( 1  4 28  4 0)
     nstep                     =           50

     celldm(1)=   1.889726  celldm(2)=   0.000000  celldm(3)=   0.000000
     celldm(4)=   0.000000  celldm(5)=   0.000000  celldm(6)=   0.000000

     crystal axes: (cart. coord. in units of alat)
               a(1) = (  13.073539   0.000000   0.000000 )
               a(2) = (  -4.357846   6.162925   0.000000 )
               a(3) = (   0.000000   0.000000  18.774005 )

     reciprocal axes: (cart. coord. in units 2 pi/alat)
               b(1) = (  0.076490  0.054087  0.000000 )
               b(2) = (  0.000000  0.162261  0.000000 )
               b(3) = (  0.000000  0.000000  0.053265 )

     PseudoPot. # 1 for Ni read from file:
     /home/alatimer/bin/psp/esp_psp_w_gbrvRu/Ni.UPF
     MD5 check sum: 8b2449ee0060d9c33484ccd47bb60870
     Pseudo is Ultrasoft + core correction, Zval = 10.0
     Generated using "atomic" code by A. Dal Corso  v.5.0.2 svn rev. 9415
     Using radial grid of 1195 points,  6 beta functions with:
                l(1) =   0
                l(2) =   0
                l(3) =   1
                l(4) =   1
                l(5) =   2
                l(6) =   2
     Q(r) pseudized with 0 coefficients

     PseudoPot. # 2 for  O read from file:
     /home/alatimer/bin/psp/esp_psp_w_gbrvRu/O.UPF
     MD5 check sum: e057bbcf3229fb5d8c36c0c92f9568b4
     Pseudo is Ultrasoft + core correction, Zval =  6.0
     Generated using "atomic" code by A. Dal Corso  v.5.0.2 svn rev. 9415
     Using radial grid of 1095 points,  4 beta functions with:
                l(1) =   0
                l(2) =   0
                l(3) =   1
                l(4) =   1
     Q(r) pseudized with 0 coefficients

     atomic species   valence    mass     pseudopotential
        Ni1           10.00    58.69340     Ni( 1.00)
        O1             6.00    15.99940      O( 1.00)

     Starting magnetic structure
     atomic species   magnetization
        Ni1          0.300
        O1           0.500

     No symmetry found

   Cartesian axes

     site n.     atom                  positions (alat units)
         1           Ni1 tau(   1) = (   0.0000000   0.0000000   7.5000000  )
         2           Ni1 tau(   2) = (   2.1789231   0.0000000   8.7580018  )
         3           Ni1 tau(   3) = (   0.0000000   0.0000000  10.0160037  )
         4           Ni1 tau(   4) = (   2.1789231   0.0000000  11.2740055  )
         5           Ni1 tau(   5) = (  -1.4526154   2.0543084   7.5000000  )
         6           Ni1 tau(   6) = (   0.7263077   2.0543084   8.7580018  )
         7           Ni1 tau(   7) = (  -1.4526154   2.0543084  10.0160037  )
         8           Ni1 tau(   8) = (   0.7263077   2.0543084  11.2740055  )
         9           Ni1 tau(   9) = (  -2.9052308   4.1086168   7.5000000  )
        10           Ni1 tau(  10) = (  -0.7263077   4.1086168   8.7580018  )
        11           Ni1 tau(  11) = (  -2.9052308   4.1086168  10.0160037  )
        12           Ni1 tau(  12) = (  -0.7263077   4.1086168  11.2740055  )
        13           Ni1 tau(  13) = (   4.3578462   0.0000000   7.5000000  )
        14           Ni1 tau(  14) = (   6.5367693   0.0000000   8.7580018  )
        15           Ni1 tau(  15) = (   4.3578462   0.0000000  10.0160037  )
        16           Ni1 tau(  16) = (   6.5367693   0.0000000  11.2740055  )
        17           Ni1 tau(  17) = (   2.9052308   2.0543084   7.5000000  )
        18           Ni1 tau(  18) = (   5.0841539   2.0543084   8.7580018  )
        19           Ni1 tau(  19) = (   2.9052308   2.0543084  10.0160037  )
        20           Ni1 tau(  20) = (   5.0841539   2.0543084  11.2740055  )
        21           Ni1 tau(  21) = (   1.4526154   4.1086168   7.5000000  )
        22           Ni1 tau(  22) = (   3.6315385   4.1086168   8.7580018  )
        23           Ni1 tau(  23) = (   1.4526154   4.1086168  10.0160037  )
        24           Ni1 tau(  24) = (   3.6315385   4.1086168  11.2740055  )
        25           Ni1 tau(  25) = (   8.7156924   0.0000000   7.5000000  )
        26           Ni1 tau(  26) = (  10.8946154   0.0000000   8.7580018  )
        27           Ni1 tau(  27) = (   8.7156924   0.0000000  10.0160037  )
        28           Ni1 tau(  28) = (  10.8946154   0.0000000  11.2740055  )
        29           Ni1 tau(  29) = (   7.2630770   2.0543084   7.5000000  )
        30           Ni1 tau(  30) = (   9.4420001   2.0543084   8.7580018  )
        31           Ni1 tau(  31) = (   7.2630770   2.0543084  10.0160037  )
        32           Ni1 tau(  32) = (   9.4420001   2.0543084  11.2740055  )
        33           Ni1 tau(  33) = (   5.8104616   4.1086168   7.5000000  )
        34           Ni1 tau(  34) = (   7.9893847   4.1086168   8.7580018  )
        35           Ni1 tau(  35) = (   5.8104616   4.1086168  10.0160037  )
        36           Ni1 tau(  36) = (   7.9893847   4.1086168  11.2740055  )
        37           O1  tau(  37) = (   1.4726137   1.0371534  12.6737555  )

     number of k points=    10  Fermi-Dirac smearing, width (Ry)=  0.0073
                       cart. coord. in units 2pi/alat
        k(    1) = (   0.0000000   0.0000000   0.0000000), wk =   0.1111111
        k(    2) = (   0.0000000   0.0540869   0.0000000), wk =   0.2222222
        k(    3) = (   0.0254968   0.0180290   0.0000000), wk =   0.2222222
        k(    4) = (   0.0254968   0.0721158   0.0000000), wk =   0.2222222
        k(    5) = (   0.0254968  -0.0360579   0.0000000), wk =   0.2222222
        k(    6) = (   0.0000000   0.0000000   0.0000000), wk =   0.1111111
        k(    7) = (   0.0000000   0.0540869   0.0000000), wk =   0.2222222
        k(    8) = (   0.0254968   0.0180290   0.0000000), wk =   0.2222222
        k(    9) = (   0.0254968   0.0721158   0.0000000), wk =   0.2222222
        k(   10) = (   0.0254968  -0.0360579   0.0000000), wk =   0.2222222

     Largest allocated arrays     est. size (Mb)     dimensions
     Largest temporary arrays     est. size (Mb)     dimensions

     Check: negative/imaginary core charge=   -0.000003    0.000000

     Initial potential from superposition of free atoms
     Check: negative starting charge=(component1):   -0.000539
     Check: negative starting charge=(component2):   -0.000284

     starting charge  365.99096, renormalised to  366.00000

     negative rho (up, down):  5.391E-04 2.842E-04

     Adding external electric field

     Computed dipole along edir(3) :
        Dipole               -0.0009 Ry au,         -0.0023 Debye
        Dipole field         -0.0000 Ry au

        Potential amp.        0.0001 Ry
        Total length         34.5908 bohr

[...]

     Starting wfc are  328 randomized atomic wfcs

     Self-consistent Calculation

     iteration #  1     ecut=    44.10 Ry     beta=0.10
     Davidson diagonalization with overlap
     ethr =  1.00E-02,  avg # of iterations =  7.1

[...]

     Magnetic moment per site:
     atom:    1    charge:    3.9562    magn:    1.1253    constr:    0.0000
     atom:    2    charge:    3.9773    magn:    1.1062    constr:    0.0000
     atom:    3    charge:    3.9772    magn:    1.1075    constr:    0.0000
     atom:    4    charge:    3.9482    magn:    1.1351    constr:    0.0000
     atom:    5    charge:    3.9563    magn:    1.1249    constr:    0.0000
     atom:    6    charge:    3.9773    magn:    1.1062    constr:    0.0000
     atom:    7    charge:    3.9774    magn:    1.1063    constr:    0.0000
     atom:    8    charge:    3.9484    magn:    1.1350    constr:    0.0000
     atom:    9    charge:    3.9563    magn:    1.1249    constr:    0.0000
     atom:   10    charge:    3.9768    magn:    1.1072    constr:    0.0000
     atom:   11    charge:    3.9774    magn:    1.1063    constr:    0.0000
     atom:   12    charge:    3.9565    magn:    1.1250    constr:    0.0000
     atom:   13    charge:    3.9563    magn:    1.1249    constr:    0.0000
     atom:   14    charge:    3.9767    magn:    1.1069    constr:    0.0000
     atom:   15    charge:    3.9774    magn:    1.1064    constr:    0.0000
     atom:   16    charge:    3.9563    magn:    1.1247    constr:    0.0000
     atom:   17    charge:    3.9562    magn:    1.1253    constr:    0.0000
     atom:   18    charge:    3.9766    magn:    1.1071    constr:    0.0000
     atom:   19    charge:    3.9772    magn:    1.1075    constr:    0.0000
     atom:   20    charge:    3.9561    magn:    1.1249    constr:    0.0000
     atom:   21    charge:    3.9563    magn:    1.1249    constr:    0.0000
     atom:   22    charge:    3.9766    magn:    1.1071    constr:    0.0000
     atom:   23    charge:    3.9774    magn:    1.1064    constr:    0.0000
     atom:   24    charge:    3.9561    magn:    1.1249    constr:    0.0000
     atom:   25    charge:    3.9558    magn:    1.1252    constr:    0.0000
     atom:   26    charge:    3.9766    magn:    1.1071    constr:    0.0000
     atom:   27    charge:    3.9765    magn:    1.1072    constr:    0.0000
     atom:   28    charge:    3.9561    magn:    1.1249    constr:    0.0000
     atom:   29    charge:    3.9558    magn:    1.1252    constr:    0.0000
     atom:   30    charge:    3.9767    magn:    1.1069    constr:    0.0000
     atom:   31    charge:    3.9765    magn:    1.1072    constr:    0.0000
     atom:   32    charge:    3.9563    magn:    1.1247    constr:    0.0000
     atom:   33    charge:    3.9561    magn:    1.1249    constr:    0.0000
     atom:   34    charge:    3.9766    magn:    1.1071    constr:    0.0000
     atom:   35    charge:    3.9764    magn:    1.1072    constr:    0.0000
[...]
    -1.6300  -1.6228  -1.6019  -1.5986  -1.5646  -1.4587  -1.4284  -1.4211
    -1.4095  -1.3917  -1.3762  -1.3690  -1.3271  -1.3163  -1.3043  -1.3019
    -1.2911  -1.2621  -1.2318  -1.2285  -1.2166  -1.2087  -1.1615  -1.1610
    -1.1532  -1.1455  -1.1233  -1.1158  -1.1120  -1.0889  -1.0757  -1.0390
    -1.0199  -0.9998  -0.9617  -0.9484  -0.9372  -0.9315  -0.9268  -0.9174
    -0.9045  -0.8990  -0.8951  -0.8498  -0.8486  -0.8299  -0.8154  -0.8087
    -0.7513  -0.7510  -0.7391  -0.7308  -0.7269  -0.7175  -0.6941  -0.6940
    -0.6811  -0.6649  -0.6320  -0.6242  -0.6163  -0.6079  -0.5928  -0.5762
    -0.5680  -0.5660  -0.5636  -0.5548  -0.5249  -0.5235  -0.5228  -0.5210
    -0.5129  -0.5020  -0.4906  -0.4891  -0.4648  -0.4600  -0.4545  -0.4527
    -0.4469  -0.4427  -0.4121  -0.4082  -0.3871  -0.3803  -0.3697  -0.3640
    -0.3284  -0.3091  -0.3051  -0.3024  -0.2966  -0.2919  -0.2873  -0.2513
    -0.2311  -0.2003  -0.1947  -0.1914   0.0650   0.2314   0.4039   0.5355
     0.5430   1.1370   1.1916   1.4058   1.4236   1.5209   1.8619   2.5316
     2.6365   2.6581   2.7145   2.8286   2.8298   2.8732   2.8735   2.9541
     3.2596   3.6048   3.9096   3.9204   4.2234   4.2643   4.3792   4.7058
     5.0378   5.1682   5.3877   5.4457   5.4621   5.4650   5.4818   5.5148
     5.5527   5.6257   6.0268   6.0277   6.0783   6.1357   6.4013   6.4040
     6.5981   6.7145   6.7834   6.8732   6.8994   7.2114   7.3202   7.3302
     7.5709   7.5759   7.6453   7.6490   7.6603   7.7476   7.8438   7.9068
     7.9580   7.9873   8.0502   8.0531   8.0604   8.1661   8.2073   8.4471
     8.4725   8.4885   8.4929   8.5384   8.5959   8.6343   8.6691   8.8124
     8.8717   9.0024   9.0036   9.0650   9.2469   9.2497   9.4068   9.4603
     9.4642   9.4969   9.5283

[...]

 ------ SPIN DOWN ----------

[...]

     the Fermi energy is     0.3017 ev

!    total energy              =   -3655.82072958 Ry
     Harris-Foulkes estimate   =   -3655.82072885 Ry
     estimated scf accuracy    <       0.00000054 Ry

     The total energy is the sum of the following terms:

     one-electron contribution =  -18791.18560756 Ry
     hartree contribution      =    9773.97355165 Ry
     xc contribution           =   -1513.47203224 Ry
     ewald contribution        =    6875.05070657 Ry
     electric field correction =       0.00029950 Ry
     smearing contrib. (-TS)   =      -0.18764751 Ry

[...]

     convergence has been achieved in  75 iterations

     Forces acting on atoms (Ry/au):

     negative rho (up, down):  4.021E-04 3.036E-04
     atom    1 type  1   force =    -0.00003232   -0.00001810    0.01860882
     atom    2 type  1   force =     0.00038955   -0.00054854   -0.01356347
     atom    3 type  1   force =    -0.00913940   -0.00645709   -0.00376673
     atom    4 type  1   force =    -0.01296883    0.01966338    0.04573723
     atom    5 type  1   force =     0.00044275   -0.00029852    0.01922214
     atom    6 type  1   force =    -0.00038753    0.00054791   -0.01352590
     atom    7 type  1   force =    -0.00068227    0.00121654    0.00869119
     atom    8 type  1   force =     0.01453352   -0.01921715    0.04605504
     atom    9 type  1   force =    -0.00013431    0.00051992    0.01922577
     atom   10 type  1   force =    -0.00000472    0.00000221   -0.00962752
     atom   11 type  1   force =     0.00091170   -0.00105761    0.00867776
     atom   12 type  1   force =    -0.00005084   -0.00006692   -0.02288640
     atom   13 type  1   force =    -0.00044884    0.00035587    0.01919408
     atom   14 type  1   force =     0.00067197    0.00047669   -0.01073238
     atom   15 type  1   force =     0.00075628   -0.00120497    0.00857116
     atom   16 type  1   force =     0.00026654    0.00018520   -0.01981923
     atom   17 type  1   force =     0.00004859    0.00003872    0.01864527
     atom   18 type  1   force =    -0.00060314   -0.00058836   -0.00989686
     atom   19 type  1   force =     0.00923795    0.00653992   -0.00401555
     atom   20 type  1   force =     0.00171557    0.00045803   -0.02009978
     atom   21 type  1   force =     0.00018457   -0.00053680    0.01919012
     atom   22 type  1   force =    -0.00076142   -0.00037419   -0.00988966
     atom   23 type  1   force =    -0.00089176    0.00110516    0.00858664
     atom   24 type  1   force =     0.00099242    0.00146403   -0.02009806
     atom   25 type  1   force =     0.00028539   -0.00039779    0.01919434
     atom   26 type  1   force =     0.00055567    0.00064835   -0.00986917
     atom   27 type  1   force =    -0.00007499    0.00014277    0.01101353
     atom   28 type  1   force =    -0.00163328   -0.00040004   -0.02009147
     atom   29 type  1   force =    -0.00028083    0.00040326    0.01919336
     atom   30 type  1   force =    -0.00076077   -0.00053659   -0.01078178
     atom   31 type  1   force =     0.00010817   -0.00011733    0.01101494
     atom   32 type  1   force =    -0.00022444   -0.00016305   -0.01981216
     atom   33 type  1   force =    -0.00001880   -0.00000894    0.01901666
     atom   34 type  1   force =     0.00079168    0.00030571   -0.00987637
     atom   35 type  1   force =    -0.00001972   -0.00000891    0.01148957
     atom   36 type  1   force =    -0.00093065   -0.00140671   -0.02009125
     atom   37 type  2   force =    -0.00184346   -0.00066607   -0.08288387

     Total force =     0.143107     Total SCF correction =     0.001347
 !ASE

     Writing output data file calc.save
     Check: negative starting charge=(component1):   -0.000822
     NEW-OLD atomic charge density approx. for the potential

     Check: negative/imaginary core charge=   -0.000003    0.000000
     Check: negative starting charge=(component1):   -0.000883

[...]

     iteration #  1     ecut=    44.10 Ry     beta=0.10
     Davidson diagonalization with overlap
     c_bands:  1 eigenvalues not converged
     c_bands:  1 eigenvalues not converged
     ethr =  2.62E-10,  avg # of iterations = 10.9

[...]

     iteration # 11     ecut=    44.10 Ry     beta=0.10
     Davidson diagonalization with overlap
     c_bands:  1 eigenvalues not converged
     ethr =  1.32E-06,  avg # of iterations =  2.9

[...]

     Writing output data file calc.save
     Check: negative starting charge=(component1):   -0.000881
     NEW-OLD atomic charge density approx. for the potential

     Check: negative/imaginary core charge=   -0.000003    0.000000
     Check: negative starting charge=(component1):   -0.000881

[...]

     Self-consistent Calculation

[...]

     total energy              =   -3655.84957010 Ry
     Harris-Foulkes estimate   =   -3655.84957017 Ry
     estimated scf accuracy    <       0.00000278 Ry

[...]

     iteration #  6     ecut=    44.10 Ry     beta=0.10
     Davidson diagonalization with overlap
     ethr =  7.61E-10,  avg # of iterations =  1.0

     negative rho (up, down):  4.389E-04 3.321E-04

[...]

     Adding external electric field

     Computed dipole along edir(3) :
        Dipole               -0.3936 Ry au,         -1.0003 Debye
        Dipole field         -0.0005 Ry au

        Potential amp.        0.0335 Ry
        Total length         34.5908 bohr

     Magnetic moment per site:
     atom:    1    charge:    3.9858    magn:    0.4348    constr:    0.0000
     atom:    2    charge:    3.9708    magn:    0.3777    constr:    0.0000
     atom:    3    charge:    3.9559    magn:    0.4071    constr:    0.0000
     atom:    4    charge:    3.9531    magn:    0.3944    constr:    0.0000
     atom:    5    charge:    3.9859    magn:    0.4361    constr:    0.0000
     atom:    6    charge:    3.9708    magn:    0.3777    constr:    0.0000
     atom:    7    charge:    3.9651    magn:    0.4046    constr:    0.0000
     atom:    8    charge:    3.9543    magn:    0.3946    constr:    0.0000
     atom:    9    charge:    3.9860    magn:    0.4361    constr:    0.0000
     atom:   10    charge:    3.9707    magn:    0.3797    constr:    0.0000
     atom:   11    charge:    3.9651    magn:    0.4046    constr:    0.0000
     atom:   12    charge:    3.8894    magn:    0.4290    constr:    0.0000
     atom:   13    charge:    3.9861    magn:    0.4359    constr:    0.0000
     atom:   14    charge:    3.9710    magn:    0.4002    constr:    0.0000
     atom:   15    charge:    3.9654    magn:    0.4050    constr:    0.0000
     atom:   16    charge:    3.8700    magn:    0.4139    constr:    0.0000
     atom:   17    charge:    3.9859    magn:    0.4347    constr:    0.0000
     atom:   18    charge:    3.9708    magn:    0.3924    constr:    0.0000
     atom:   19    charge:    3.9552    magn:    0.4073    constr:    0.0000
     atom:   20    charge:    3.8608    magn:    0.4147    constr:    0.0000
     atom:   21    charge:    3.9860    magn:    0.4360    constr:    0.0000
     atom:   22    charge:    3.9708    magn:    0.3924    constr:    0.0000
     atom:   23    charge:    3.9654    magn:    0.4050    constr:    0.0000
     atom:   24    charge:    3.8609    magn:    0.4147    constr:    0.0000
     atom:   25    charge:    3.9860    magn:    0.4266    constr:    0.0000
     atom:   26    charge:    3.9708    magn:    0.3924    constr:    0.0000
     atom:   27    charge:    3.9677    magn:    0.3929    constr:    0.0000
     atom:   28    charge:    3.8616    magn:    0.4149    constr:    0.0000
     atom:   29    charge:    3.9860    magn:    0.4266    constr:    0.0000
     atom:   30    charge:    3.9709    magn:    0.4002    constr:    0.0000
     atom:   31    charge:    3.9676    magn:    0.3929    constr:    0.0000
     atom:   32    charge:    3.8704    magn:    0.4140    constr:    0.0000
     atom:   33    charge:    3.9862    magn:    0.4334    constr:    0.0000
     atom:   34    charge:    3.9707    magn:    0.3924    constr:    0.0000
     atom:   35    charge:    3.9670    magn:    0.3902    constr:    0.0000
     atom:   36    charge:    3.8614    magn:    0.4148    constr:    0.0000
     atom:   37    charge:    1.9030    magn:    0.1268    constr:    0.0000

     End of self-consistent calculation

 ------ SPIN UP ------------

[...]

 ------ SPIN DOWN ----------

[...]

          k = 0.0255-0.0361 0.0000 ( 50488 PWs)   bands (ev):

   -17.6199  -7.1873  -6.3297  -5.9320  -5.9145  -5.1866  -5.1597  -4.5877
    -4.3850  -4.1488  -3.8694  -3.7871  -3.7549  -3.6036  -3.5447  -3.4391
    -3.4179  -3.3697  -3.3185  -3.3148  -3.1307  -3.0783  -3.0450  -3.0321
    -3.0214  -2.9596  -2.9389  -2.8537  -2.7728  -2.7468  -2.6907  -2.6852
    -2.6536  -2.6303  -2.5541  -2.5510  -2.5054  -2.4830  -2.4662  -2.4425
    -2.2967  -2.2548  -2.2206  -2.1906  -2.1833  -2.1516  -2.1423  -2.1205
    -2.1122  -2.0946  -2.0697  -2.0664  -2.0276  -1.9755  -1.9642  -1.8168
    -1.7930  -1.7709  -1.7206  -1.7089  -1.6330  -1.6267  -1.6248  -1.6148
    -1.5602  -1.5496  -1.5484  -1.5304  -1.5293  -1.5053  -1.5022  -1.4994
    -1.4884  -1.4770  -1.4739  -1.4467  -1.4461  -1.3839  -1.3715  -1.2701
    -1.2646  -1.2433  -1.2201  -1.1821  -1.1672  -1.1576  -1.1552  -1.1512
    -1.1204  -1.1000  -1.0751  -1.0734  -1.0483  -1.0412  -1.0232  -1.0221
    -1.0059  -0.9637  -0.9361  -0.9224  -0.9150  -0.9070  -0.8867  -0.8667
    -0.8514  -0.8177  -0.8170  -0.8063  -0.7922  -0.7538  -0.7535  -0.7377
    -0.6717  -0.6645  -0.6612  -0.6465  -0.5810  -0.5722  -0.5312  -0.5222
    -0.5168  -0.4977  -0.4895  -0.4847  -0.4427  -0.4418  -0.3927  -0.3831
    -0.3605  -0.3571  -0.3444  -0.2856  -0.2740  -0.2562  -0.2487  -0.2120
    -0.2100  -0.1710  -0.1410  -0.1116  -0.0941  -0.0872  -0.0371  -0.0186
    -0.0009  -0.0007   0.0117   0.0331   0.0448   0.0519   0.0624   0.0770
     0.0925   0.1030   0.1124   0.1279   0.1486   0.1505   0.1879   0.1944
     0.2168   0.2198   0.2277   0.2317   0.2568   0.2847   0.2997   0.3108
     0.3151   0.3235   0.3419   0.3557   0.3699   0.3700   0.3721   0.3851
     0.3982   0.4070   0.4288   0.4335   0.4783   0.4845   0.5254   0.5587
     0.5595   0.5669   0.5764   0.5845   0.5879   0.6167   0.6517   0.6778
     0.7296   0.7984   1.0764   1.0891   1.1211   1.1509   1.2367   1.3580
     1.4334   1.5044   1.7309   1.8850   1.9569   2.2016   2.3010   2.3239
     2.6918   2.8609   2.9972   3.0096   3.2290   3.3154   3.3297   3.4423
     3.4881   3.5123   3.7317   3.9443   4.1915   4.2619   4.2782   4.5387
     4.6370   5.0695   5.0939   5.1530   5.2472   5.4027   5.5250   5.7860
     5.7891   5.8451   6.0451   6.1443   6.3200   6.3870   6.6097   6.6381
     6.6605   6.7012   6.7521   6.7621   6.7695   6.8657   6.9402   7.0910
     7.1211   7.1815   7.3153   7.5695   7.6247   7.6805   7.9403   7.9630
     7.9981   8.0030   8.1144   8.2438   8.3094   8.3628   8.4468   8.5444
     8.7043   8.7085   8.7812   8.9343   8.9712   9.0777   9.1062   9.1873
     9.2760   9.5389   9.5936   9.6025   9.6516   9.8184   9.8250   9.8570
     9.8919   9.9277   9.9338

     the Fermi energy is     0.3350 ev

!    total energy              =   -3655.84956956 Ry
     Harris-Foulkes estimate   =   -3655.84957248 Ry
     estimated scf accuracy    <       0.00000067 Ry

     The total energy is the sum of the following terms:

     one-electron contribution =  -18992.98920056 Ry
     hartree contribution      =    9874.82296393 Ry
     xc contribution           =   -1513.73688403 Ry
     ewald contribution        =    6976.23812142 Ry
     electric field correction =       0.00019067 Ry
     smearing contrib. (-TS)   =      -0.18476098 Ry

     total magnetization       =    24.97 Bohr mag/cell
     absolute magnetization    =    28.59 Bohr mag/cell

     convergence has been achieved in   6 iterations

     Forces acting on atoms (Ry/au):

     negative rho (up, down):  4.389E-04 3.321E-04
     atom    1 type  1   force =    -0.00007283    0.00000506    0.01523064
     atom    2 type  1   force =    -0.00002551   -0.00054891   -0.01286598
     atom    3 type  1   force =    -0.00052126   -0.00010872   -0.00009398
     atom    4 type  1   force =    -0.00002835   -0.00038950   -0.00079896
     atom    5 type  1   force =     0.00027936   -0.00032145    0.01958219
     atom    6 type  1   force =    -0.00059363    0.00025826   -0.01282958
     atom    7 type  1   force =    -0.00024939   -0.00017744   -0.00015459
     atom    8 type  1   force =    -0.00023609   -0.00009052   -0.00026429
     atom    9 type  1   force =    -0.00025873    0.00029707    0.01950975
     atom   10 type  1   force =    -0.00018939   -0.00032926   -0.01925054
     atom   11 type  1   force =    -0.00030320   -0.00042682   -0.00005741
     atom   12 type  1   force =    -0.00008914   -0.00022026   -0.00012712
     atom   13 type  1   force =    -0.00036512    0.00020410    0.01933284
     atom   14 type  1   force =    -0.00023593   -0.00012376   -0.01913921
     atom   15 type  1   force =     0.00027641   -0.00001845    0.00006270
     atom   16 type  1   force =     0.00009667    0.00018855    0.00003803
     atom   17 type  1   force =    -0.00018706   -0.00007619    0.01500805
     atom   18 type  1   force =     0.00170120   -0.00089579   -0.02002154
     atom   19 type  1   force =     0.00002553    0.00027748    0.00002975
     atom   20 type  1   force =     0.00032310   -0.00001230    0.00006512
     atom   21 type  1   force =     0.00002268   -0.00049281    0.01939847
     atom   22 type  1   force =    -0.00037136    0.00177349   -0.02004362
     atom   23 type  1   force =     0.00001362    0.00000676   -0.00004391
     atom   24 type  1   force =    -0.00000884    0.00010087    0.00009252
     atom   25 type  1   force =     0.00042276   -0.00014719    0.01901026
     atom   26 type  1   force =    -0.00113561    0.00119998   -0.01993823
     atom   27 type  1   force =     0.00017022    0.00023902    0.00006153
     atom   28 type  1   force =     0.00009469    0.00016357   -0.00005870
     atom   29 type  1   force =    -0.00003292    0.00049823    0.01906133
     atom   30 type  1   force =     0.00054261    0.00042627   -0.01908767
     atom   31 type  1   force =     0.00017938    0.00022628    0.00008623
     atom   32 type  1   force =    -0.00003306    0.00009397   -0.00011866
     atom   33 type  1   force =     0.00024900    0.00010502    0.01899650
     atom   34 type  1   force =     0.00066116   -0.00159916   -0.01992600
     atom   35 type  1   force =     0.00033853    0.00001602    0.00002973
     atom   36 type  1   force =     0.00007740   -0.00017315   -0.00008926
     atom   37 type  2   force =    -0.00053689    0.00007168   -0.00068639

     Total force =     0.078129     Total SCF correction =     0.003654
 !ASE

     Writing output data file calc.save

     General routines

     Parallel routines

   This run was terminated on:   5:57:18  24Feb2018

   JOB DONE.