     Program PWSCF v.5.1rc2 (svn rev. ) starts on 20Apr2018 at 13:26: 2

     Current dimensions of program PWSCF are:
     Max number of different atomic species (ntypx) = 10
     Max number of k-points (npk) =  40000
     Max angular momentum in pseudopotentials (lmaxx) =  3
     Presently no symmetry can be used with electric field

     IMPORTANT: XC functional enforced from input :
     Exchange-correlation      = RPBE ( 1  4 28  4 0)
     Any further DFT definition will be discarded
     Please, verify this is what you really want

     Subspace diagonalization in iterative solution of the eigenvalue problem:
     a serial algorithm will be used

     Found symmetry operation: I + (  0.0000  0.3333  0.0000)
     This is a supercell, fractional translations are disabled

     Generating pointlists ...
     new r_m :   0.4125 (alat units)  0.7795 (a.u.) for type    1

     bravais-lattice index     =            0
     lattice parameter (alat)  =       1.8897  a.u.
     unit-cell volume          =   12682.1321 (a.u.)^3
     number of atoms/cell      =           36
     number of atomic types    =            1
     number of electrons       =       324.00
     number of Kohn-Sham states=          262
     kinetic-energy cutoff     =      44.0992  Ry
     charge density cutoff     =     440.9919  Ry
     convergence threshold     =      7.3E-07
     mixing beta               =       0.1000
     number of iterations used =           10  plain     mixing
     Exchange-correlation      = RPBE ( 1  4 28  4 0)
     nstep                     =           50

     celldm(1)=   1.889726  celldm(2)=   0.000000  celldm(3)=   0.000000
     celldm(4)=   0.000000  celldm(5)=   0.000000  celldm(6)=   0.000000

     crystal axes: (cart. coord. in units of alat)
               a(1) = (   6.191574   0.000000   0.000000 )
               a(2) = (   0.000000   7.583099   0.000000 )
               a(3) = (   0.000000   0.000000  40.026524 )

     reciprocal axes: (cart. coord. in units 2 pi/alat)
               b(1) = (  0.161510  0.000000  0.000000 )
               b(2) = (  0.000000  0.131872  0.000000 )
               b(3) = (  0.000000  0.000000  0.024983 )

     PseudoPot. # 1 for Co read from file:
     /home/alatimer/bin/psp/esp_psp_w_gbrvRu/Co.UPF
     MD5 check sum: f36dda9fe147c5f42efc2a4f7ec0da3d
     Pseudo is Ultrasoft + core correction, Zval =  9.0
     Generated by new atomic code, or converted to UPF format
     Using radial grid of  937 points,  3 beta functions with:
                l(1) =   1
                l(2) =   2
                l(3) =   2
     Q(r) pseudized with  8 coefficients,  rinner =    1.000   1.000   1.000
                                                       1.000   1.000

     atomic species   valence    mass     pseudopotential
        Co1            9.00    58.93320     Co( 1.00)

     Starting magnetic structure
     atomic species   magnetization
        Co1          0.444

     No symmetry found

   Cartesian axes

     site n.     atom                  positions (alat units)
         1           Co1 tau(   1) = (   4.1277161   1.2638498  24.0265242  )
         2           Co1 tau(   2) = (   4.1277161   3.7915494  24.0265242  )
         3           Co1 tau(   3) = (   4.1277161   6.3192490  24.0265242  )
         4           Co1 tau(   4) = (   2.0638581   0.0000000  23.2968402  )
         5           Co1 tau(   5) = (   2.0638581   2.5276996  23.2968402  )
         6           Co1 tau(   6) = (   2.0638581   5.0553992  23.2968402  )
         7           Co1 tau(   7) = (   0.0000000   1.2638498  22.5671562  )
         8           Co1 tau(   8) = (   0.0000000   3.7915494  22.5671562  )
         9           Co1 tau(   9) = (   0.0000000   6.3192490  22.5671562  )
        10           Co1 tau(  10) = (   4.1277161   0.0000000  21.8374721  )
        11           Co1 tau(  11) = (   4.1277161   2.5276996  21.8374721  )
        12           Co1 tau(  12) = (   4.1277161   5.0553992  21.8374721  )
        13           Co1 tau(  13) = (   2.0638581   1.2638498  21.1077881  )
        14           Co1 tau(  14) = (   2.0638581   3.7915494  21.1077881  )
        15           Co1 tau(  15) = (   2.0638581   6.3192490  21.1077881  )
        16           Co1 tau(  16) = (   0.0000000   0.0000000  20.3781041  )
        17           Co1 tau(  17) = (   0.0000000   2.5276996  20.3781041  )
        18           Co1 tau(  18) = (   0.0000000   5.0553992  20.3781041  )
        19           Co1 tau(  19) = (   4.1277161   1.2638498  19.6484201  )
        20           Co1 tau(  20) = (   4.1277161   3.7915494  19.6484201  )
        21           Co1 tau(  21) = (   4.1277161   6.3192490  19.6484201  )
        22           Co1 tau(  22) = (   2.0638581   0.0000000  18.9187361  )
        23           Co1 tau(  23) = (   2.0638581   2.5276996  18.9187361  )
        24           Co1 tau(  24) = (   2.0638581   5.0553992  18.9187361  )
        25           Co1 tau(  25) = (   0.0000000   1.2638498  18.1890521  )
        26           Co1 tau(  26) = (   0.0000000   3.7915494  18.1890521  )
        27           Co1 tau(  27) = (   0.0000000   6.3192490  18.1890521  )
        28           Co1 tau(  28) = (   4.1277161   0.0000000  17.4593680  )
        29           Co1 tau(  29) = (   4.1277161   2.5276996  17.4593680  )
        30           Co1 tau(  30) = (   4.1277161   5.0553992  17.4593680  )
        31           Co1 tau(  31) = (   2.0638581   1.2638498  16.7296840  )
        32           Co1 tau(  32) = (   2.0638581   3.7915494  16.7296840  )
        33           Co1 tau(  33) = (   2.0638581   6.3192490  16.7296840  )
        34           Co1 tau(  34) = (   0.0000000   0.0000000  16.0000000  )
        35           Co1 tau(  35) = (   0.0000000   2.5276996  16.0000000  )
        36           Co1 tau(  36) = (   0.0000000   5.0553992  16.0000000  )

     number of k points=    10  Fermi-Dirac smearing, width (Ry)=  0.0073
                       cart. coord. in units 2pi/alat
        k(    1) = (   0.0000000   0.0000000   0.0000000), wk =   0.1111111
        k(    2) = (   0.0000000   0.0439574   0.0000000), wk =   0.2222222
        k(    3) = (   0.0538366   0.0000000   0.0000000), wk =   0.2222222
        k(    4) = (   0.0538366   0.0439574   0.0000000), wk =   0.2222222
        k(    5) = (   0.0538366  -0.0439574   0.0000000), wk =   0.2222222
        k(    6) = (   0.0000000   0.0000000   0.0000000), wk =   0.1111111
        k(    7) = (   0.0000000   0.0439574   0.0000000), wk =   0.2222222
        k(    8) = (   0.0538366   0.0000000   0.0000000), wk =   0.2222222
        k(    9) = (   0.0538366   0.0439574   0.0000000), wk =   0.2222222
        k(   10) = (   0.0538366  -0.0439574   0.0000000), wk =   0.2222222

     Largest allocated arrays     est. size (Mb)     dimensions
     Largest temporary arrays     est. size (Mb)     dimensions

     Initial potential from superposition of free atoms
     Check: negative starting charge=(component1):   -0.004327
     Check: negative starting charge=(component2):   -0.001664

     starting charge  323.99032, renormalised to  324.00000

     negative rho (up, down):  4.327E-03 1.664E-03

     Adding external electric field

     Computed dipole along edir(3) :
        Dipole               -0.0000 Ry au,         -0.0000 Debye
        Dipole field         -0.0000 Ry au

        Potential amp.        0.0000 Ry
        Total length         73.7482 bohr

[...]

     Starting wfc are  324 randomized atomic wfcs

     Self-consistent Calculation

     iteration #  1     ecut=    44.10 Ry     beta=0.10
     Davidson diagonalization with overlap
     ethr =  1.00E-02,  avg # of iterations =  8.4

[...]

     Magnetic moment per site:
     atom:    1    charge:    3.1746    magn:    1.4229    constr:    0.0000
     atom:    2    charge:    3.1746    magn:    1.4229    constr:    0.0000
     atom:    3    charge:    3.1746    magn:    1.4229    constr:    0.0000
     atom:    4    charge:    3.2031    magn:    1.3954    constr:    0.0000
     atom:    5    charge:    3.2031    magn:    1.3954    constr:    0.0000
     atom:    6    charge:    3.2031    magn:    1.3954    constr:    0.0000
     atom:    7    charge:    3.2164    magn:    1.3814    constr:    0.0000
     atom:    8    charge:    3.2165    magn:    1.3814    constr:    0.0000
     atom:    9    charge:    3.2165    magn:    1.3815    constr:    0.0000
     atom:   10    charge:    3.2302    magn:    1.3680    constr:    0.0000
     atom:   11    charge:    3.2302    magn:    1.3680    constr:    0.0000
     atom:   12    charge:    3.2302    magn:    1.3680    constr:    0.0000
     atom:   13    charge:    3.2306    magn:    1.3690    constr:    0.0000
     atom:   14    charge:    3.2306    magn:    1.3690    constr:    0.0000
     atom:   15    charge:    3.2306    magn:    1.3690    constr:    0.0000
     atom:   16    charge:    3.2305    magn:    1.3686    constr:    0.0000
     atom:   17    charge:    3.2305    magn:    1.3686    constr:    0.0000
     atom:   18    charge:    3.2305    magn:    1.3686    constr:    0.0000
     atom:   19    charge:    3.2302    magn:    1.3684    constr:    0.0000
     atom:   20    charge:    3.2302    magn:    1.3684    constr:    0.0000
     atom:   21    charge:    3.2302    magn:    1.3684    constr:    0.0000
     atom:   22    charge:    3.2306    magn:    1.3690    constr:    0.0000
     atom:   23    charge:    3.2306    magn:    1.3690    constr:    0.0000
     atom:   24    charge:    3.2306    magn:    1.3690    constr:    0.0000
     atom:   25    charge:    3.2305    magn:    1.3682    constr:    0.0000
     atom:   26    charge:    3.2305    magn:    1.3682    constr:    0.0000
     atom:   27    charge:    3.2305    magn:    1.3682    constr:    0.0000
     atom:   28    charge:    3.2161    magn:    1.3813    constr:    0.0000
     atom:   29    charge:    3.2161    magn:    1.3813    constr:    0.0000
     atom:   30    charge:    3.2162    magn:    1.3813    constr:    0.0000
     atom:   31    charge:    3.2031    magn:    1.3954    constr:    0.0000
     atom:   32    charge:    3.2031    magn:    1.3954    constr:    0.0000
     atom:   33    charge:    3.2031    magn:    1.3954    constr:    0.0000
     atom:   34    charge:    3.1748    magn:    1.4230    constr:    0.0000
     atom:   35    charge:    3.1748    magn:    1.4230    constr:    0.0000
     atom:   36    charge:    3.1748    magn:    1.4230    constr:    0.0000

     total energy              =   -2879.91699546 Ry
     Harris-Foulkes estimate   =   -2883.60665723 Ry
     estimated scf accuracy    <      23.89731936 Ry

     total magnetization       =    74.54 Bohr mag/cell
     absolute magnetization    =    74.57 Bohr mag/cell

[...]

     iteration # 10     ecut=    44.10 Ry     beta=0.10
     Davidson diagonalization with overlap
     c_bands:  1 eigenvalues not converged
     ethr =  1.70E-04,  avg # of iterations =  6.6

[...]

     End of self-consistent calculation

 ------ SPIN UP ------------

          k = 0.0000 0.0000 0.0000 ( 62705 PWs)   bands (ev):

    -8.9029  -7.6840  -6.4571  -6.4571  -6.1852  -5.7855  -5.7683  -5.6314
    -5.6314  -5.4664  -5.1825  -5.1825  -5.1823  -5.1823  -5.1788  -5.1358
    -4.9509  -4.8485  -4.8007  -4.7930  -4.7930  -4.7408  -4.7408  -4.7275
    -4.7275  -4.6404  -4.6151  -4.6151  -4.6046  -4.6046  -4.5571  -4.5571
    -4.5135  -4.5135  -4.4996  -4.4468  -4.3889  -4.3888  -4.2926  -4.2926
    -4.1886  -4.1886  -4.1690  -4.1690  -4.0492  -4.0492  -3.9131  -3.9131
    -3.8937  -3.8937  -3.8775  -3.8091  -3.8091  -3.7636  -3.7399  -3.7399
    -3.7298  -3.6756  -3.6756  -3.6489  -3.6154  -3.6154  -3.6028  -3.6028
    -3.5739  -3.5126  -3.4939  -3.4485  -3.4339  -3.4339  -3.4214  -3.4214
    -3.4180  -3.3114  -3.3114  -3.2822  -3.2610  -3.2610  -3.2344  -3.2249
    -3.1950  -3.1879  -3.1879  -3.1821  -3.1821  -3.1501  -3.1501  -3.1310
    -3.0987  -3.0613  -3.0165  -3.0165  -3.0113  -3.0036  -2.9995  -2.9847
    -2.9847  -2.9687  -2.9279  -2.9279  -2.9224  -2.9224  -2.9179  -2.9135
    -2.8564  -2.8412  -2.8412  -2.7989  -2.7774  -2.7774  -2.7280  -2.6943
    -2.6943  -2.6615  -2.6615  -2.6347  -2.6220  -2.6220  -2.5828  -2.5616
    -2.5616  -2.5088  -2.5014  -2.5014  -2.4472  -2.4031  -2.3982  -2.3978
    -2.3978  -2.3855  -2.3855  -2.3182  -2.2187  -2.2187  -2.2110  -2.1976
    -2.1160  -2.1160  -2.1158  -2.1014  -2.0999  -2.0860  -2.0860  -2.0771
    -2.0770  -2.0335  -2.0124  -1.9890  -1.9890  -1.9805  -1.9805  -1.9432
    -1.9432  -1.9261  -1.9002  -1.8869  -1.8868  -1.8657  -1.8657  -1.8438
    -1.8438  -1.8318  -1.7827  -1.7609  -1.7609  -1.6869  -1.6869  -1.6445
    -1.6445  -1.6392  -1.6165  -1.6165  -1.5786  -1.5664  -1.5664  -1.5599
    -1.5599  -1.5460  -1.5460  -1.5156  -1.5054  -1.4630  -1.4586  -1.4586
    -1.4549  -1.4330  -1.4330  -1.4164  -1.3429  -1.2505  -0.7749  -0.7687
    -0.7169  -0.7169  -0.0547   0.4831   0.4831   0.5237   0.5519   0.6028
     0.6028   0.8728   0.8728   1.2606   1.2606   1.3447   1.3447   1.6473
     1.7076   2.2031   2.6000   2.6000   2.8375   2.8375   2.9080   2.9080
     2.9080   3.3406   3.4215   3.5806   3.8598   4.0116   4.0116   4.1335
     4.5957   4.7694   4.7694   4.7849   4.7849   5.0055   5.1428   5.1428
     5.5429   5.8628   5.8628   5.9906   5.9906   6.0681   6.0681   6.1067
     6.1067   6.1282   6.1658   6.4346   6.4896   6.4896   6.5227   6.5227
     6.7034   6.7034   6.8927   7.1561   7.1777   7.1777   7.2021   7.2979
     7.3109   7.3479   7.4159   7.4199   7.4200   7.4457

[...]

 ------ SPIN DOWN ----------

[...]

     the Fermi energy is    -0.5112 ev

!    total energy              =   -2885.17454804 Ry
     Harris-Foulkes estimate   =   -2885.17454766 Ry
     estimated scf accuracy    <       0.00000043 Ry

     The total energy is the sum of the following terms:

     one-electron contribution =  -60531.57146367 Ry
     hartree contribution      =   30564.20539491 Ry
     xc contribution           =   -1327.25093234 Ry
     ewald contribution        =   28409.55090021 Ry
     electric field correction =       0.00000000 Ry
     smearing contrib. (-TS)   =      -0.10844716 Ry

[...]

     convergence has been achieved in  66 iterations

     Forces acting on atoms (Ry/au):

     negative rho (up, down):  5.143E-03 1.790E-02
     atom    1 type  1   force =    -0.00357113    0.00006875   -0.02683678
     atom    2 type  1   force =    -0.00356751    0.00002269   -0.02683151
     atom    3 type  1   force =    -0.00356960   -0.00009168   -0.02683086
     atom    4 type  1   force =     0.00753464   -0.00001660   -0.01222794
     atom    5 type  1   force =     0.00754712    0.00008831   -0.01223791
     atom    6 type  1   force =     0.00755520   -0.00007174   -0.01222393
     atom    7 type  1   force =    -0.00107077    0.00006255    0.01037399
     atom    8 type  1   force =    -0.00108144    0.00000983    0.01039253
     atom    9 type  1   force =    -0.00107565   -0.00007215    0.01039310
     atom   10 type  1   force =    -0.00371468   -0.00001080    0.01763119
     atom   11 type  1   force =    -0.00372404    0.00008071    0.01764749
     atom   12 type  1   force =    -0.00372391   -0.00006943    0.01767173
     atom   13 type  1   force =     0.00172701    0.00006526    0.00794627
     atom   14 type  1   force =     0.00173267   -0.00000037    0.00797890
     atom   15 type  1   force =     0.00173343   -0.00006491    0.00796868
     atom   16 type  1   force =     0.00203337    0.00000798    0.00305523
     atom   17 type  1   force =     0.00203641    0.00005016    0.00306706
     atom   18 type  1   force =     0.00203462   -0.00005798    0.00308264
     atom   19 type  1   force =    -0.00211867    0.00005225   -0.00306878
     atom   20 type  1   force =    -0.00212365   -0.00000931   -0.00305191
     atom   21 type  1   force =    -0.00212330   -0.00004293   -0.00305685
     atom   22 type  1   force =    -0.00166954    0.00001593   -0.00799021
     atom   23 type  1   force =    -0.00167720    0.00004083   -0.00799332
     atom   24 type  1   force =    -0.00167101   -0.00005742   -0.00798040
     atom   25 type  1   force =     0.00364621    0.00006148   -0.01773211
     atom   26 type  1   force =     0.00364914   -0.00002390   -0.01773313
     atom   27 type  1   force =     0.00364440   -0.00003778   -0.01772685
     atom   28 type  1   force =     0.00106116    0.00002059   -0.01030627
     atom   29 type  1   force =     0.00107176    0.00003036   -0.01030418
     atom   30 type  1   force =     0.00106472   -0.00005073   -0.01030462
     atom   31 type  1   force =    -0.00753601    0.00005639    0.01221417
     atom   32 type  1   force =    -0.00754435   -0.00001950    0.01221389
     atom   33 type  1   force =    -0.00753128   -0.00003638    0.01220710
     atom   34 type  1   force =     0.00367524    0.00002172    0.02686575
     atom   35 type  1   force =     0.00367308    0.00003716    0.02686476
     atom   36 type  1   force =     0.00367355   -0.00005934    0.02686305

     Total force =     0.093439     Total SCF correction =     0.002014
 !ASE

     Writing output data file calc.save
     Check: negative starting charge=(component1):   -0.005992
     NEW-OLD atomic charge density approx. for the potential
     Check: negative starting charge=(component1):   -0.006425

[...]

     iteration #  6     ecut=    44.10 Ry     beta=0.10
     Davidson diagonalization with overlap
     c_bands:  1 eigenvalues not converged
     ethr =  8.02E-06,  avg # of iterations =  8.9

[...]

     Writing output data file calc.save
     Check: negative starting charge=(component1):   -0.006555
     NEW-OLD atomic charge density approx. for the potential
     Check: negative starting charge=(component1):   -0.006564

[...]

     Self-consistent Calculation

[...]

     total energy              =   -2885.18890493 Ry
     Harris-Foulkes estimate   =   -2885.18889046 Ry
     estimated scf accuracy    <       0.00000095 Ry

[...]

     iteration # 18     ecut=    44.10 Ry     beta=0.10
     Davidson diagonalization with overlap
     ethr =  2.94E-10,  avg # of iterations =  1.0

     negative rho (up, down):  5.759E-03 1.974E-02

[...]

     Adding external electric field

     Computed dipole along edir(3) :
        Dipole               -0.0181 Ry au,         -0.0460 Debye
        Dipole field         -0.0000 Ry au

        Potential amp.        0.0026 Ry
        Total length         73.7482 bohr

     Magnetic moment per site:
     atom:    1    charge:    3.0794    magn:    0.9585    constr:    0.0000
     atom:    2    charge:    3.0796    magn:    0.9586    constr:    0.0000
     atom:    3    charge:    3.0795    magn:    0.9586    constr:    0.0000
     atom:    4    charge:    3.1686    magn:    0.9635    constr:    0.0000
     atom:    5    charge:    3.1686    magn:    0.9636    constr:    0.0000
     atom:    6    charge:    3.1686    magn:    0.9636    constr:    0.0000
     atom:    7    charge:    3.1665    magn:    0.9630    constr:    0.0000
     atom:    8    charge:    3.1663    magn:    0.9631    constr:    0.0000
     atom:    9    charge:    3.1664    magn:    0.9631    constr:    0.0000
     atom:   10    charge:    3.1955    magn:    0.9472    constr:    0.0000
     atom:   11    charge:    3.1955    magn:    0.9473    constr:    0.0000
     atom:   12    charge:    3.1955    magn:    0.9473    constr:    0.0000
     atom:   13    charge:    3.1976    magn:    0.9550    constr:    0.0000
     atom:   14    charge:    3.1976    magn:    0.9551    constr:    0.0000
     atom:   15    charge:    3.1976    magn:    0.9551    constr:    0.0000
     atom:   16    charge:    3.1891    magn:    0.9532    constr:    0.0000
     atom:   17    charge:    3.1891    magn:    0.9532    constr:    0.0000
     atom:   18    charge:    3.1891    magn:    0.9533    constr:    0.0000
     atom:   19    charge:    3.1989    magn:    0.9475    constr:    0.0000
     atom:   20    charge:    3.1989    magn:    0.9475    constr:    0.0000
     atom:   21    charge:    3.1989    magn:    0.9475    constr:    0.0000
     atom:   22    charge:    3.1998    magn:    0.9556    constr:    0.0000
     atom:   23    charge:    3.1998    magn:    0.9557    constr:    0.0000
     atom:   24    charge:    3.1998    magn:    0.9557    constr:    0.0000
     atom:   25    charge:    3.1994    magn:    0.9556    constr:    0.0000
     atom:   26    charge:    3.1994    magn:    0.9556    constr:    0.0000
     atom:   27    charge:    3.1994    magn:    0.9556    constr:    0.0000
     atom:   28    charge:    3.2027    magn:    0.9750    constr:    0.0000
     atom:   29    charge:    3.2027    magn:    0.9750    constr:    0.0000
     atom:   30    charge:    3.2027    magn:    0.9750    constr:    0.0000
     atom:   31    charge:    3.2081    magn:    0.9897    constr:    0.0000
     atom:   32    charge:    3.2081    magn:    0.9897    constr:    0.0000
     atom:   33    charge:    3.2081    magn:    0.9897    constr:    0.0000
     atom:   34    charge:    3.2201    magn:    1.0031    constr:    0.0000
     atom:   35    charge:    3.2201    magn:    1.0031    constr:    0.0000
     atom:   36    charge:    3.2201    magn:    1.0031    constr:    0.0000

     End of self-consistent calculation

 ------ SPIN UP ------------

[...]

 ------ SPIN DOWN ----------

[...]

          k = 0.0538-0.0440 0.0000 ( 62686 PWs)   bands (ev):

    -8.2468  -7.3837  -7.1518  -6.8971  -6.3610  -6.1379  -5.9820  -5.4283
    -5.3246  -4.8392  -4.7601  -4.6903  -4.4537  -4.4031  -4.3992  -4.2859
    -4.2378  -4.1736  -3.9467  -3.9305  -3.9041  -3.8145  -3.7660  -3.7233
    -3.6297  -3.5808  -3.5388  -3.5338  -3.4787  -3.4601  -3.3609  -3.3601
    -3.3351  -3.2953  -3.1923  -3.1031  -3.0573  -3.0204  -3.0159  -2.9856
    -2.9736  -2.9547  -2.9127  -2.8669  -2.8125  -2.7994  -2.7541  -2.7444
    -2.6841  -2.6635  -2.6149  -2.5674  -2.5306  -2.5301  -2.4312  -2.4210
    -2.3744  -2.3729  -2.3202  -2.3176  -2.2392  -2.2116  -2.2078  -2.1816
    -2.1439  -2.1240  -2.0771  -2.0738  -2.0541  -1.9858  -1.9757  -1.9393
    -1.9072  -1.8999  -1.8733  -1.8559  -1.8431  -1.7779  -1.7643  -1.7520
    -1.7062  -1.7003  -1.6914  -1.6499  -1.6290  -1.6144  -1.5937  -1.5568
    -1.5452  -1.4897  -1.4521  -1.4359  -1.4251  -1.4158  -1.3794  -1.3537
    -1.3371  -1.3169  -1.2909  -1.2819  -1.2736  -1.2571  -1.2532  -1.2465
    -1.2068  -1.1792  -1.1788  -1.1382  -1.1307  -1.0806  -1.0750  -1.0678
    -1.0376  -0.9960  -0.9698  -0.9415  -0.9017  -0.8842  -0.8675  -0.8565
    -0.8388  -0.8087  -0.7983  -0.7504  -0.7353  -0.7256  -0.7009  -0.6267
    -0.6190  -0.5949  -0.5905  -0.5146  -0.4684  -0.4667  -0.4092  -0.3660
    -0.3376  -0.3192  -0.3171  -0.2979  -0.2871  -0.2763  -0.2732  -0.2314
    -0.1932  -0.1803  -0.1555  -0.1344  -0.1130  -0.1025  -0.0698  -0.0611
    -0.0503  -0.0143  -0.0086   0.0261   0.0323   0.0416   0.0546   0.0816
     0.0952   0.1263   0.1425   0.1911   0.1993   0.2246   0.2364   0.2464
     0.2897   0.3043   0.3244   0.3723   0.3930   0.4017   0.4195   0.4301
     0.4447   0.4468   0.4623   0.4675   0.4785   0.5066   0.5295   0.5371
     0.5537   0.5563   0.5609   0.5965   0.6023   0.6107   0.6231   0.6894
     0.7347   0.8852   1.1264   1.2211   1.2567   1.3204   1.4191   1.4885
     1.5149   1.5452   2.0026   2.1010   2.2503   2.6597   2.6664   2.6999
     2.7979   2.9742   3.3776   3.4033   3.4987   3.7251   3.8007   3.8804
     4.0285   4.0941   4.2186   4.4432   4.4644   4.4860   4.6581   4.7589
     4.9437   4.9507   4.9742   4.9874   5.1005   5.1638   5.3177   5.3550
     5.3802   5.4889   5.5192   5.5287   5.6473   5.7712   5.7715   5.8440
     6.0399   6.1016   6.1887   6.2122   6.2330   6.3637   6.4343   6.4566
     6.4934   6.6490   6.6607   6.7111   6.9131   6.9268   6.9556   7.0110
     7.0815   7.1023   7.1197   7.2779   7.3644   7.5522

     the Fermi energy is    -0.5320 ev

!    total energy              =   -2885.18898680 Ry
     Harris-Foulkes estimate   =   -2885.18890505 Ry
     estimated scf accuracy    <       0.00000062 Ry

     The total energy is the sum of the following terms:

     one-electron contribution =  -60718.29754343 Ry
     hartree contribution      =   30657.32071583 Ry
     xc contribution           =   -1327.38624149 Ry
     ewald contribution        =   28503.28037842 Ry
     electric field correction =       0.00000032 Ry
     smearing contrib. (-TS)   =      -0.10629645 Ry

     total magnetization       =    62.59 Bohr mag/cell
     absolute magnetization    =    69.12 Bohr mag/cell

     convergence has been achieved in  18 iterations

     Forces acting on atoms (Ry/au):

     negative rho (up, down):  5.759E-03 1.974E-02
     atom    1 type  1   force =    -0.00072610    0.00004247    0.00010591
     atom    2 type  1   force =    -0.00076592    0.00001968    0.00003767
     atom    3 type  1   force =    -0.00074211   -0.00006309    0.00008257
     atom    4 type  1   force =     0.00096090   -0.00002538   -0.00124056
     atom    5 type  1   force =     0.00093723    0.00008822   -0.00128475
     atom    6 type  1   force =     0.00094027   -0.00006269   -0.00129351
     atom    7 type  1   force =    -0.00015728    0.00006083   -0.00056107
     atom    8 type  1   force =    -0.00014974    0.00001906   -0.00061063
     atom    9 type  1   force =    -0.00014927   -0.00008039   -0.00057166
     atom   10 type  1   force =    -0.00011405   -0.00002792   -0.00030284
     atom   11 type  1   force =    -0.00011032    0.00011266   -0.00031247
     atom   12 type  1   force =    -0.00010991   -0.00008577   -0.00031170
     atom   13 type  1   force =     0.00011563    0.00010444   -0.00022585
     atom   14 type  1   force =     0.00011179    0.00002818   -0.00021633
     atom   15 type  1   force =     0.00011508   -0.00013334   -0.00022209
     atom   16 type  1   force =     0.00095485   -0.00003001   -0.00096233
     atom   17 type  1   force =     0.00097556    0.00014137   -0.00091873
     atom   18 type  1   force =     0.00098267   -0.00011408   -0.00090934
     atom   19 type  1   force =    -0.00017672    0.00000766   -0.00487911
     atom   20 type  1   force =    -0.00014913   -0.00000008   -0.00482769
     atom   21 type  1   force =    -0.00016797   -0.00000785   -0.00486415
     atom   22 type  1   force =    -0.00170284    0.00000146   -0.00817956
     atom   23 type  1   force =    -0.00169334    0.00000915   -0.00815345
     atom   24 type  1   force =    -0.00168944   -0.00001131   -0.00814317
     atom   25 type  1   force =     0.00368832    0.00000769   -0.01412645
     atom   26 type  1   force =     0.00369476   -0.00000345   -0.01409151
     atom   27 type  1   force =     0.00368882   -0.00000373   -0.01411923
     atom   28 type  1   force =     0.00090873    0.00000187   -0.00959662
     atom   29 type  1   force =     0.00090645    0.00000891   -0.00959640
     atom   30 type  1   force =     0.00090468   -0.00000864   -0.00959627
     atom   31 type  1   force =    -0.00778422    0.00001086    0.01268819
     atom   32 type  1   force =    -0.00777850   -0.00000058    0.01269633
     atom   33 type  1   force =    -0.00778194   -0.00000998    0.01269125
     atom   34 type  1   force =     0.00402311    0.00000117    0.02727177
     atom   35 type  1   force =     0.00402012    0.00001237    0.02727026
     atom   36 type  1   force =     0.00401984   -0.00000975    0.02727356

     Total force =     0.064477     Total SCF correction =     0.002842
 !ASE

     Writing output data file calc.save

     General routines

     Parallel routines

   This run was terminated on:  19:16:43  20Apr2018

   JOB DONE.