     Program PWSCF v.5.1rc2 (svn rev. ) starts on 24Feb2018 at  5: 8:10

     Current dimensions of program PWSCF are:
     Max number of different atomic species (ntypx) = 10
     Max number of k-points (npk) =  40000
     Max angular momentum in pseudopotentials (lmaxx) =  3
     Presently no symmetry can be used with electric field

     IMPORTANT: XC functional enforced from input :
     Exchange-correlation      = RPBE ( 1  4 28  4 0)
     Any further DFT definition will be discarded
     Please, verify this is what you really want

     Subspace diagonalization in iterative solution of the eigenvalue problem:
     a serial algorithm will be used

     Generating pointlists ...
     new r_m :   0.4125 (alat units)  0.7795 (a.u.) for type    1
     new r_m :   0.4125 (alat units)  0.7795 (a.u.) for type    2

     bravais-lattice index     =            0
     lattice parameter (alat)  =       1.8897  a.u.
     unit-cell volume          =   10312.9744 (a.u.)^3
     number of atoms/cell      =           37
     number of atomic types    =            2
     number of electrons       =       330.00
     number of Kohn-Sham states=          265
     kinetic-energy cutoff     =      44.0992  Ry
     charge density cutoff     =     440.9919  Ry
     convergence threshold     =      7.3E-07
     mixing beta               =       0.1000
     number of iterations used =           10  plain     mixing
     Exchange-correlation      = RPBE ( 1  4 28  4 0)
     nstep                     =           50

     celldm(1)=   1.889726  celldm(2)=   0.000000  celldm(3)=   0.000000
     celldm(4)=   0.000000  celldm(5)=   0.000000  celldm(6)=   0.000000

     crystal axes: (cart. coord. in units of alat)
               a(1) = (  13.134537   0.000000   0.000000 )
               a(2) = (  -4.378179   6.191680   0.000000 )
               a(3) = (   0.000000   0.000000  18.791614 )

     reciprocal axes: (cart. coord. in units 2 pi/alat)
               b(1) = (  0.076135  0.053836  0.000000 )
               b(2) = (  0.000000  0.161507  0.000000 )
               b(3) = (  0.000000  0.000000  0.053215 )

     PseudoPot. # 1 for Co read from file:
     /home/alatimer/bin/psp/esp_psp_w_gbrvRu/Co.UPF
     MD5 check sum: f36dda9fe147c5f42efc2a4f7ec0da3d
     Pseudo is Ultrasoft + core correction, Zval =  9.0
     Generated by new atomic code, or converted to UPF format
     Using radial grid of  937 points,  3 beta functions with:
                l(1) =   1
                l(2) =   2
                l(3) =   2
     Q(r) pseudized with  8 coefficients,  rinner =    1.000   1.000   1.000
                                                       1.000   1.000

     PseudoPot. # 2 for  O read from file:
     /home/alatimer/bin/psp/esp_psp_w_gbrvRu/O.UPF
     MD5 check sum: e057bbcf3229fb5d8c36c0c92f9568b4
     Pseudo is Ultrasoft + core correction, Zval =  6.0
     Generated using "atomic" code by A. Dal Corso  v.5.0.2 svn rev. 9415
     Using radial grid of 1095 points,  4 beta functions with:
                l(1) =   0
                l(2) =   0
                l(3) =   1
                l(4) =   1
     Q(r) pseudized with 0 coefficients

     atomic species   valence    mass     pseudopotential
        Co1            9.00    58.93320     Co( 1.00)
        O1             6.00    15.99940      O( 1.00)

     Starting magnetic structure
     atomic species   magnetization
        Co1          0.444
        O1           0.667

     No symmetry found

   Cartesian axes

     site n.     atom                  positions (alat units)
         1           Co1 tau(   1) = (   0.0000000   0.0000000   7.5000000  )
         2           Co1 tau(   2) = (   2.1890894   0.0000000   8.7638714  )
         3           Co1 tau(   3) = (   0.0000000   0.0000000  10.0277427  )
         4           Co1 tau(   4) = (   2.1890894   0.0000000  11.2916141  )
         5           Co1 tau(   5) = (  -1.4593930   2.0638933   7.5000000  )
         6           Co1 tau(   6) = (   0.7296965   2.0638933   8.7638714  )
         7           Co1 tau(   7) = (  -1.4593930   2.0638933  10.0277427  )
         8           Co1 tau(   8) = (   0.7296965   2.0638933  11.2916141  )
         9           Co1 tau(   9) = (  -2.9187859   4.1277866   7.5000000  )
        10           Co1 tau(  10) = (  -0.7296965   4.1277866   8.7638714  )
        11           Co1 tau(  11) = (  -2.9187859   4.1277866  10.0277427  )
        12           Co1 tau(  12) = (  -0.7296965   4.1277866  11.2916141  )
        13           Co1 tau(  13) = (   4.3781789   0.0000000   7.5000000  )
        14           Co1 tau(  14) = (   6.5672683   0.0000000   8.7638714  )
        15           Co1 tau(  15) = (   4.3781789   0.0000000  10.0277427  )
        16           Co1 tau(  16) = (   6.5672683   0.0000000  11.2916141  )
        17           Co1 tau(  17) = (   2.9187859   2.0638933   7.5000000  )
        18           Co1 tau(  18) = (   5.1078753   2.0638933   8.7638714  )
        19           Co1 tau(  19) = (   2.9187859   2.0638933  10.0277427  )
        20           Co1 tau(  20) = (   5.1078753   2.0638933  11.2916141  )
        21           Co1 tau(  21) = (   1.4593930   4.1277866   7.5000000  )
        22           Co1 tau(  22) = (   3.6484824   4.1277866   8.7638714  )
        23           Co1 tau(  23) = (   1.4593930   4.1277866  10.0277427  )
        24           Co1 tau(  24) = (   3.6484824   4.1277866  11.2916141  )
        25           Co1 tau(  25) = (   8.7563577   0.0000000   7.5000000  )
        26           Co1 tau(  26) = (  10.9454471   0.0000000   8.7638714  )
        27           Co1 tau(  27) = (   8.7563577   0.0000000  10.0277427  )
        28           Co1 tau(  28) = (  10.9454471   0.0000000  11.2916141  )
        29           Co1 tau(  29) = (   7.2969648   2.0638933   7.5000000  )
        30           Co1 tau(  30) = (   9.4860542   2.0638933   8.7638714  )
        31           Co1 tau(  31) = (   7.2969648   2.0638933  10.0277427  )
        32           Co1 tau(  32) = (   9.4860542   2.0638933  11.2916141  )
        33           Co1 tau(  33) = (   5.8375718   4.1277866   7.5000000  )
        34           Co1 tau(  34) = (   8.0266612   4.1277866   8.7638714  )
        35           Co1 tau(  35) = (   5.8375718   4.1277866  10.0277427  )
        36           Co1 tau(  36) = (   8.0266612   4.1277866  11.2916141  )
        37           O1  tau(  37) = (   0.7296965   2.0638933  13.0916141  )

     number of k points=    10  Fermi-Dirac smearing, width (Ry)=  0.0073
                       cart. coord. in units 2pi/alat
        k(    1) = (   0.0000000   0.0000000   0.0000000), wk =   0.1111111
        k(    2) = (   0.0000000   0.0538357   0.0000000), wk =   0.2222222
        k(    3) = (   0.0253784   0.0179452   0.0000000), wk =   0.2222222
        k(    4) = (   0.0253784   0.0717809   0.0000000), wk =   0.2222222
        k(    5) = (   0.0253784  -0.0358905   0.0000000), wk =   0.2222222
        k(    6) = (   0.0000000   0.0000000   0.0000000), wk =   0.1111111
        k(    7) = (   0.0000000   0.0538357   0.0000000), wk =   0.2222222
        k(    8) = (   0.0253784   0.0179452   0.0000000), wk =   0.2222222
        k(    9) = (   0.0253784   0.0717809   0.0000000), wk =   0.2222222
        k(   10) = (   0.0253784  -0.0358905   0.0000000), wk =   0.2222222

     Largest allocated arrays     est. size (Mb)     dimensions
     Largest temporary arrays     est. size (Mb)     dimensions

     Check: negative/imaginary core charge=   -0.000003    0.000000

     Initial potential from superposition of free atoms
     Check: negative starting charge=(component1):   -0.002772
     Check: negative starting charge=(component2):   -0.001069

     starting charge  329.99032, renormalised to  330.00000

     negative rho (up, down):  2.772E-03 1.069E-03

     Adding external electric field

     Computed dipole along edir(3) :
        Dipole               -0.0012 Ry au,         -0.0031 Debye
        Dipole field         -0.0000 Ry au

        Potential amp.        0.0001 Ry
        Total length         34.6232 bohr

[...]

     Starting wfc are  328 randomized atomic wfcs

     Self-consistent Calculation

     iteration #  1     ecut=    44.10 Ry     beta=0.10
     Davidson diagonalization with overlap
     ethr =  1.00E-02,  avg # of iterations =  6.9

[...]

     Magnetic moment per site:
     atom:    1    charge:    3.1929    magn:    1.4056    constr:    0.0000
     atom:    2    charge:    3.2411    magn:    1.3602    constr:    0.0000
     atom:    3    charge:    3.2421    magn:    1.3598    constr:    0.0000
     atom:    4    charge:    3.1914    magn:    1.4074    constr:    0.0000
     atom:    5    charge:    3.1929    magn:    1.4056    constr:    0.0000
     atom:    6    charge:    3.2451    magn:    1.3553    constr:    0.0000
     atom:    7    charge:    3.2421    magn:    1.3598    constr:    0.0000
     atom:    8    charge:    3.2231    magn:    1.3743    constr:    0.0000
     atom:    9    charge:    3.1919    magn:    1.4064    constr:    0.0000
     atom:   10    charge:    3.2411    magn:    1.3602    constr:    0.0000
     atom:   11    charge:    3.2415    magn:    1.3597    constr:    0.0000
     atom:   12    charge:    3.1915    magn:    1.4074    constr:    0.0000
     atom:   13    charge:    3.1918    magn:    1.4063    constr:    0.0000
     atom:   14    charge:    3.2410    magn:    1.3603    constr:    0.0000
     atom:   15    charge:    3.2415    magn:    1.3597    constr:    0.0000
     atom:   16    charge:    3.1921    magn:    1.4061    constr:    0.0000
     atom:   17    charge:    3.1929    magn:    1.4056    constr:    0.0000
     atom:   18    charge:    3.2410    magn:    1.3603    constr:    0.0000
     atom:   19    charge:    3.2421    magn:    1.3598    constr:    0.0000
     atom:   20    charge:    3.1921    magn:    1.4061    constr:    0.0000
     atom:   21    charge:    3.1929    magn:    1.4056    constr:    0.0000
     atom:   22    charge:    3.2409    magn:    1.3603    constr:    0.0000
     atom:   23    charge:    3.2421    magn:    1.3598    constr:    0.0000
     atom:   24    charge:    3.1922    magn:    1.4060    constr:    0.0000
     atom:   25    charge:    3.1923    magn:    1.4059    constr:    0.0000
     atom:   26    charge:    3.2409    magn:    1.3603    constr:    0.0000
     atom:   27    charge:    3.2412    magn:    1.3601    constr:    0.0000
     atom:   28    charge:    3.1922    magn:    1.4060    constr:    0.0000
     atom:   29    charge:    3.1928    magn:    1.4056    constr:    0.0000
     atom:   30    charge:    3.2410    magn:    1.3603    constr:    0.0000
     atom:   31    charge:    3.2410    magn:    1.3602    constr:    0.0000
     atom:   32    charge:    3.1921    magn:    1.4061    constr:    0.0000
     atom:   33    charge:    3.1923    magn:    1.4060    constr:    0.0000
     atom:   34    charge:    3.2410    magn:    1.3603    constr:    0.0000
     atom:   35    charge:    3.2412    magn:    1.3601    constr:    0.0000
     atom:   36    charge:    3.1921    magn:    1.4061    constr:    0.0000
[...]
    -2.5315  -2.5097  -2.5075  -2.4820  -2.4485  -2.3888  -2.3875  -2.3754
    -2.3599  -2.3458  -2.2805  -2.2788  -2.2780  -2.2654  -2.2590  -2.2327
    -2.2314  -2.2275  -2.2190  -2.2037  -2.1940  -2.1804  -2.1543  -2.1027
    -2.0932  -2.0744  -2.0363  -2.0190  -2.0181  -1.9725  -1.9385  -1.9023
    -1.8924  -1.8783  -1.8779  -1.8638  -1.8170  -1.7605  -1.7211  -1.7038
    -1.6975  -1.6857  -1.6413  -1.6392  -1.6280  -1.6214  -1.5998  -1.5857
    -1.5855  -1.5686  -1.5673  -1.5630  -1.4922  -1.4742  -1.4711  -1.4702
    -1.4583  -1.4459  -1.4274  -1.4125  -1.4118  -1.4004  -1.3995  -1.3812
    -1.3727  -1.3645  -1.3587  -1.3506  -1.3466  -1.3410  -1.3400  -1.3306
    -1.3249  -1.3056  -1.2323  -1.2127  -1.2072  -1.1901  -1.1843  -1.1769
    -1.1571  -1.1085  -1.1027  -1.0854  -1.0569  -1.0430  -1.0377  -1.0031
    -0.9962  -0.9628  -0.9522  -0.9442  -0.9415  -0.9339  -0.9338  -0.9182
    -0.8947  -0.8861  -0.8583  -0.8558  -0.8541  -0.8438  -0.8349  -0.8154
    -0.7967  -0.7938  -0.7893  -0.7637  -0.7502  -0.7201  -0.6839  -0.6744
    -0.6533  -0.6437  -0.6334  -0.6129  -0.6089  -0.5938  -0.5537  -0.5384
    -0.4815  -0.4288  -0.4257  -0.4235  -0.2364  -0.1759   0.1667   0.2612
     0.2884   0.8596   1.0433   1.3195   1.3475   1.4361   1.5669   2.3633
     2.3949   2.5194   2.5747   2.7585   2.7837   2.7845   2.7998   2.8503
     3.0490   3.3664   3.7628   3.7738   3.9417   4.2067   4.2982   4.4626
     4.9605   5.0993   5.2761   5.3649   5.3681   5.3834   5.4036   5.4157
     5.4737   5.5053   5.9951   6.0077   6.0156   6.0240   6.2263   6.2430
     6.4050   6.5906   6.6671   6.7885   6.8199   7.0922   7.1745   7.2634
     7.5047   7.5642   7.7444   7.7465   7.7483   7.7631   7.7964   7.8379
     7.8654   7.9057   7.9644   7.9744   7.9767   8.0001   8.2900   8.3031
     8.3626

[...]

 ------ SPIN DOWN ----------

[...]

     the Fermi energy is     0.3531 ev

!    total energy              =   -2918.08425672 Ry
     Harris-Foulkes estimate   =   -2918.08424893 Ry
     estimated scf accuracy    <       0.00000051 Ry

     The total energy is the sum of the following terms:

     one-electron contribution =  -14718.82687261 Ry
     hartree contribution      =    7672.18217393 Ry
     xc contribution           =   -1335.17624955 Ry
     ewald contribution        =    5463.86157763 Ry
     electric field correction =       0.00048689 Ry
     smearing contrib. (-TS)   =      -0.12537300 Ry

[...]

     convergence has been achieved in  52 iterations

     Forces acting on atoms (Ry/au):

     negative rho (up, down):  4.483E-03 1.341E-02
     atom    1 type  1   force =     0.00018050    0.00094228    0.03325622
     atom    2 type  1   force =    -0.00070347    0.00099542   -0.01309073
     atom    3 type  1   force =    -0.00137479   -0.00185663    0.00524201
     atom    4 type  1   force =     0.00286577   -0.00403696   -0.02834626
     atom    5 type  1   force =     0.00095103   -0.00014091    0.03328785
     atom    6 type  1   force =    -0.00000492   -0.00000423   -0.02660654
     atom    7 type  1   force =    -0.00220809   -0.00067788    0.00524992
     atom    8 type  1   force =     0.00000142    0.00000077    0.09874645
     atom    9 type  1   force =     0.00060310    0.00043170    0.03260547
     atom   10 type  1   force =     0.00069732   -0.00099936   -0.01309068
     atom   11 type  1   force =     0.00295467    0.00209119    0.01335020
     atom   12 type  1   force =    -0.00286609    0.00403639   -0.02834653
     atom   13 type  1   force =    -0.00060421   -0.00043185    0.03260421
     atom   14 type  1   force =     0.00055893    0.00031469   -0.01322618
     atom   15 type  1   force =    -0.00295119   -0.00208869    0.01334941
     atom   16 type  1   force =     0.00065864    0.00127653   -0.03245435
     atom   17 type  1   force =    -0.00095138    0.00013415    0.03329337
     atom   18 type  1   force =     0.00047477    0.00041959   -0.01323739
     atom   19 type  1   force =     0.00220706    0.00067895    0.00525977
     atom   20 type  1   force =     0.00141626    0.00020286   -0.03247070
     atom   21 type  1   force =    -0.00018680   -0.00094122    0.03326111
     atom   22 type  1   force =    -0.00019973   -0.00015304   -0.01332233
     atom   23 type  1   force =     0.00137558    0.00185641    0.00525363
     atom   24 type  1   force =     0.00103447    0.00072599   -0.03155684
     atom   25 type  1   force =     0.00000545    0.00000682    0.03236096
     atom   26 type  1   force =     0.00020550    0.00015776   -0.01333079
     atom   27 type  1   force =     0.00007542   -0.00011249    0.01409828
     atom   28 type  1   force =    -0.00103665   -0.00072620   -0.03155958
     atom   29 type  1   force =     0.00000333    0.00000094    0.03249466
     atom   30 type  1   force =    -0.00046977   -0.00042023   -0.01324240
     atom   31 type  1   force =    -0.00000063   -0.00000120    0.01342346
     atom   32 type  1   force =    -0.00141945   -0.00019983   -0.03247086
     atom   33 type  1   force =     0.00000246   -0.00000055    0.03235976
     atom   34 type  1   force =    -0.00055710   -0.00031010   -0.01323112
     atom   35 type  1   force =    -0.00008165    0.00010820    0.01409831
     atom   36 type  1   force =    -0.00065636   -0.00127971   -0.03245637
     atom   37 type  2   force =     0.00000061    0.00000044   -0.10155539

     Total force =     0.202119     Total SCF correction =     0.002109
 !ASE

     Writing output data file calc.save
     Check: negative starting charge=(component1):   -0.003840
     NEW-OLD atomic charge density approx. for the potential

     Check: negative/imaginary core charge=   -0.000003    0.000000
     Check: negative starting charge=(component1):   -0.004125

[...]

     iteration #  1     ecut=    44.10 Ry     beta=0.10
     Davidson diagonalization with overlap
     c_bands:  1 eigenvalues not converged
     c_bands:  1 eigenvalues not converged
     c_bands:  1 eigenvalues not converged
     c_bands:  1 eigenvalues not converged
     ethr =  2.87E-10,  avg # of iterations = 15.6

[...]

     iteration #  1     ecut=    44.10 Ry     beta=0.10
     Davidson diagonalization with overlap
     c_bands:  1 eigenvalues not converged
     ethr =  2.23E-10,  avg # of iterations = 10.9

[...]

     Writing output data file calc.save
     Check: negative starting charge=(component1):   -0.004170
     NEW-OLD atomic charge density approx. for the potential

     Check: negative/imaginary core charge=   -0.000003    0.000000
     Check: negative starting charge=(component1):   -0.004166

[...]

     Self-consistent Calculation

[...]

     total energy              =   -2918.13748267 Ry
     Harris-Foulkes estimate   =   -2918.13745852 Ry
     estimated scf accuracy    <       0.00000146 Ry

[...]

     iteration # 14     ecut=    44.10 Ry     beta=0.10
     Davidson diagonalization with overlap
     ethr =  4.20E-10,  avg # of iterations =  1.8

     negative rho (up, down):  5.062E-03 1.332E-02

[...]

     Adding external electric field

     Computed dipole along edir(3) :
        Dipole               -0.6381 Ry au,         -1.6220 Debye
        Dipole field         -0.0008 Ry au

        Potential amp.        0.0538 Ry
        Total length         34.6232 bohr

     Magnetic moment per site:
     atom:    1    charge:    3.2193    magn:    1.0163    constr:    0.0000
     atom:    2    charge:    3.2007    magn:    0.9365    constr:    0.0000
     atom:    3    charge:    3.1964    magn:    0.9444    constr:    0.0000
     atom:    4    charge:    3.0121    magn:    0.9747    constr:    0.0000
     atom:    5    charge:    3.2193    magn:    1.0163    constr:    0.0000
     atom:    6    charge:    3.2006    magn:    0.8916    constr:    0.0000
     atom:    7    charge:    3.1964    magn:    0.9444    constr:    0.0000
     atom:    8    charge:    3.1659    magn:    0.9032    constr:    0.0000
     atom:    9    charge:    3.2198    magn:    1.0141    constr:    0.0000
     atom:   10    charge:    3.2007    magn:    0.9365    constr:    0.0000
     atom:   11    charge:    3.1986    magn:    0.9358    constr:    0.0000
     atom:   12    charge:    3.0121    magn:    0.9747    constr:    0.0000
     atom:   13    charge:    3.2198    magn:    1.0140    constr:    0.0000
     atom:   14    charge:    3.2012    magn:    0.9398    constr:    0.0000
     atom:   15    charge:    3.1986    magn:    0.9359    constr:    0.0000
     atom:   16    charge:    2.9599    magn:    0.9298    constr:    0.0000
     atom:   17    charge:    3.2193    magn:    1.0163    constr:    0.0000
     atom:   18    charge:    3.2011    magn:    0.9398    constr:    0.0000
     atom:   19    charge:    3.1964    magn:    0.9445    constr:    0.0000
     atom:   20    charge:    2.9597    magn:    0.9297    constr:    0.0000
     atom:   21    charge:    3.2194    magn:    1.0163    constr:    0.0000
     atom:   22    charge:    3.2011    magn:    0.9477    constr:    0.0000
     atom:   23    charge:    3.1964    magn:    0.9445    constr:    0.0000
     atom:   24    charge:    2.9801    magn:    0.9387    constr:    0.0000
     atom:   25    charge:    3.2196    magn:    1.0127    constr:    0.0000
     atom:   26    charge:    3.2011    magn:    0.9476    constr:    0.0000
     atom:   27    charge:    3.2001    magn:    0.9244    constr:    0.0000
     atom:   28    charge:    2.9813    magn:    0.9391    constr:    0.0000
     atom:   29    charge:    3.2195    magn:    1.0082    constr:    0.0000
     atom:   30    charge:    3.2011    magn:    0.9397    constr:    0.0000
     atom:   31    charge:    3.2004    magn:    0.9336    constr:    0.0000
     atom:   32    charge:    2.9610    magn:    0.9301    constr:    0.0000
     atom:   33    charge:    3.2196    magn:    1.0128    constr:    0.0000
     atom:   34    charge:    3.2011    magn:    0.9397    constr:    0.0000
     atom:   35    charge:    3.2000    magn:    0.9244    constr:    0.0000
     atom:   36    charge:    2.9612    magn:    0.9302    constr:    0.0000
     atom:   37    charge:    1.9708    magn:    0.2064    constr:    0.0000

     End of self-consistent calculation

 ------ SPIN UP ------------

[...]

 ------ SPIN DOWN ----------

[...]

          k = 0.0254-0.0359 0.0000 ( 51064 PWs)   bands (ev):

   -16.4115  -7.2190  -6.3430  -5.9419  -5.9344  -5.1631  -5.1612  -4.4855
    -3.8565  -3.8288  -3.7009  -3.6832  -3.5181  -3.3775  -3.3627  -3.3524
    -3.2407  -3.1974  -3.0264  -2.9972  -2.8937  -2.8839  -2.8808  -2.8588
    -2.7603  -2.7283  -2.7054  -2.6339  -2.5691  -2.4799  -2.4747  -2.3854
    -2.3690  -2.3584  -2.3040  -2.2906  -2.2519  -2.2321  -2.1939  -2.1336
    -2.1104  -2.0353  -2.0159  -1.9089  -1.8942  -1.8538  -1.8449  -1.8162
    -1.7952  -1.7874  -1.7597  -1.7474  -1.7251  -1.7218  -1.6784  -1.4839
    -1.4541  -1.4381  -1.4053  -1.3289  -1.3177  -1.3121  -1.2756  -1.2643
    -1.2547  -1.2391  -1.2084  -1.1761  -1.1631  -1.1515  -1.1410  -1.1387
    -1.1021  -1.0902  -1.0848  -1.0816  -1.0219  -0.9872  -0.9866  -0.8586
    -0.8359  -0.8232  -0.8088  -0.7874  -0.7848  -0.6987  -0.6925  -0.6813
    -0.6805  -0.6625  -0.6375  -0.5904  -0.5865  -0.5704  -0.5411  -0.5224
    -0.5153  -0.4703  -0.4433  -0.4332  -0.4102  -0.3816  -0.3617  -0.3518
    -0.3317  -0.3255  -0.2991  -0.2979  -0.2677  -0.2346  -0.1942  -0.1930
    -0.1663  -0.1455  -0.1074  -0.1049  -0.0853  -0.0327  -0.0293   0.0353
     0.0686   0.0973   0.1120   0.1190   0.1656   0.1788   0.1821   0.1969
     0.2302   0.2746   0.2856   0.2975   0.3137   0.3485   0.3508   0.3810
     0.4191   0.4562   0.4757   0.5287   0.5386   0.5750   0.6013   0.6186
     0.6405   0.6886   0.7383   0.7487   0.7766   0.7779   0.7806   0.7835
     0.7940   0.8198   0.8262   0.8339   0.8348   0.8674   0.8966   0.9356
     0.9476   0.9476   0.9578   0.9614   0.9840   1.0077   1.0293   1.0447
     1.0851   1.1023   1.1134   1.1168   1.1199   1.1357   1.1469   1.1497
     1.1815   1.1930   1.2095   1.2159   1.2542   1.3207   1.3271   1.3514
     1.3554   1.3772   1.3850   1.3863   1.4067   1.4201   1.4447   1.4509
     1.4540   1.4974   1.6863   1.7332   1.7829   1.8366   1.8667   2.0079
     2.0345   2.0750   2.1057   2.1879   2.2876   2.6408   2.8828   2.9138
     3.0614   3.1588   3.3467   3.5271   3.5781   3.6363   3.6844   3.6897
     3.7268   3.9752   3.9938   4.0775   4.3263   4.4821   4.5840   4.6361
     4.7097   5.1985   5.2411   5.3098   5.4514   5.5393   5.5762   5.6407
     5.6586   5.7522   5.8698   6.2501   6.3510   6.3695   6.4976   6.5184
     6.5416   6.6566   6.8904   6.9337   7.0340   7.0530   7.1715   7.2349
     7.2430   7.4393   7.4529   7.5803   7.6355   7.7325   7.8964   7.9109
     8.1328   8.2424   8.3210   8.3360   8.3786   8.4310   8.4631   8.5696
     8.7011

     the Fermi energy is     0.3465 ev

!    total energy              =   -2918.13765774 Ry
     Harris-Foulkes estimate   =   -2918.13748290 Ry
     estimated scf accuracy    <       0.00000067 Ry

     The total energy is the sum of the following terms:

     one-electron contribution =  -15014.90856989 Ry
     hartree contribution      =    7819.88046218 Ry
     xc contribution           =   -1335.62478921 Ry
     ewald contribution        =    5612.63373769 Ry
     electric field correction =       0.00049620 Ry
     smearing contrib. (-TS)   =      -0.11899471 Ry

     total magnetization       =    64.05 Bohr mag/cell
     absolute magnetization    =    70.45 Bohr mag/cell

     convergence has been achieved in  14 iterations

     Forces acting on atoms (Ry/au):

     negative rho (up, down):  5.062E-03 1.332E-02
     atom    1 type  1   force =     0.00057440    0.00140811    0.03046317
     atom    2 type  1   force =    -0.00041551    0.00053320   -0.03072977
     atom    3 type  1   force =     0.00012759   -0.00025533   -0.00028557
     atom    4 type  1   force =     0.00036423   -0.00047027    0.00055307
     atom    5 type  1   force =     0.00153502    0.00006840    0.03044062
     atom    6 type  1   force =    -0.00001920   -0.00002416   -0.03242154
     atom    7 type  1   force =    -0.00017913    0.00020169   -0.00024961
     atom    8 type  1   force =     0.00001524    0.00000626    0.00078913
     atom    9 type  1   force =     0.00055830    0.00041422    0.02942443
     atom   10 type  1   force =     0.00036993   -0.00055109   -0.03072826
     atom   11 type  1   force =     0.00039919    0.00029139   -0.00020854
     atom   12 type  1   force =    -0.00031957    0.00051102    0.00055461
     atom   13 type  1   force =    -0.00059100   -0.00041207    0.02945591
     atom   14 type  1   force =     0.00015869   -0.00055979   -0.02914005
     atom   15 type  1   force =    -0.00042628   -0.00030356   -0.00020029
     atom   16 type  1   force =    -0.00036843   -0.00007649    0.00012839
     atom   17 type  1   force =    -0.00155187   -0.00009929    0.03047010
     atom   18 type  1   force =    -0.00046786    0.00034819   -0.02914827
     atom   19 type  1   force =     0.00016764   -0.00023072   -0.00024549
     atom   20 type  1   force =    -0.00017252   -0.00033298    0.00011947
     atom   21 type  1   force =    -0.00060282   -0.00143671    0.03048460
     atom   22 type  1   force =    -0.00031049   -0.00022686   -0.02980709
     atom   23 type  1   force =    -0.00015662    0.00024623   -0.00024365
     atom   24 type  1   force =    -0.00030129   -0.00021234   -0.00000207
     atom   25 type  1   force =     0.00011226   -0.00010554    0.02974420
     atom   26 type  1   force =     0.00034653    0.00022268   -0.02979773
     atom   27 type  1   force =    -0.00002411    0.00008311    0.00020551
     atom   28 type  1   force =     0.00027187    0.00021263   -0.00006720
     atom   29 type  1   force =     0.00002134    0.00002313    0.03018250
     atom   30 type  1   force =     0.00048837   -0.00032974   -0.02914058
     atom   31 type  1   force =     0.00002676    0.00002630    0.00026528
     atom   32 type  1   force =     0.00014965    0.00032007    0.00006426
     atom   33 type  1   force =    -0.00005916    0.00013628    0.02974789
     atom   34 type  1   force =    -0.00014601    0.00059355   -0.02912942
     atom   35 type  1   force =     0.00008645   -0.00004735    0.00017500
     atom   36 type  1   force =     0.00035339    0.00004093    0.00007596
     atom   37 type  2   force =    -0.00001498   -0.00001311   -0.00179900

     Total force =     0.127513     Total SCF correction =     0.002098
 !ASE

     Writing output data file calc.save

     General routines

     Parallel routines

   This run was terminated on:  11:58:56  24Feb2018

   JOB DONE.