     Program PWSCF v.5.1rc2 (svn rev. ) starts on 23Mar2018 at  9: 3:26

     Current dimensions of program PWSCF are:
     Max number of different atomic species (ntypx) = 10
     Max number of k-points (npk) =  40000
     Max angular momentum in pseudopotentials (lmaxx) =  3
     Presently no symmetry can be used with electric field

     IMPORTANT: XC functional enforced from input :
     Exchange-correlation      = RPBE ( 1  4 28  4 0)
     Any further DFT definition will be discarded
     Please, verify this is what you really want

               file Ni.UPF: wavefunction(s)  3D renormalized

     Subspace diagonalization in iterative solution of the eigenvalue problem:
     a serial algorithm will be used

     Generating pointlists ...
     new r_m :   0.4125 (alat units)  0.7795 (a.u.) for type    1
     new r_m :   0.4125 (alat units)  0.7795 (a.u.) for type    2

     bravais-lattice index     =            0
     lattice parameter (alat)  =       1.8897  a.u.
     unit-cell volume          =   12553.3819 (a.u.)^3
     number of atoms/cell      =           37
     number of atomic types    =            2
     number of electrons       =       366.00
     number of Kohn-Sham states=          283
     kinetic-energy cutoff     =      44.0992  Ry
     charge density cutoff     =     440.9919  Ry
     convergence threshold     =      7.3E-07
     mixing beta               =       0.1000
     number of iterations used =           10  plain     mixing
     Exchange-correlation      = RPBE ( 1  4 28  4 0)
     nstep                     =           50

     celldm(1)=   1.889726  celldm(2)=   0.000000  celldm(3)=   0.000000
     celldm(4)=   0.000000  celldm(5)=   0.000000  celldm(6)=   0.000000

     crystal axes: (cart. coord. in units of alat)
               a(1) = (   6.162925   0.000000   0.000000 )
               a(2) = (   0.000000   7.548011   0.000000 )
               a(3) = (   0.000000   0.000000  39.989385 )

     reciprocal axes: (cart. coord. in units 2 pi/alat)
               b(1) = (  0.162261  0.000000  0.000000 )
               b(2) = (  0.000000  0.132485  0.000000 )
               b(3) = (  0.000000  0.000000  0.025007 )

     PseudoPot. # 1 for Ni read from file:
     /home/alatimer/bin/psp/esp_psp_w_gbrvRu/Ni.UPF
     MD5 check sum: 8b2449ee0060d9c33484ccd47bb60870
     Pseudo is Ultrasoft + core correction, Zval = 10.0
     Generated using "atomic" code by A. Dal Corso  v.5.0.2 svn rev. 9415
     Using radial grid of 1195 points,  6 beta functions with:
                l(1) =   0
                l(2) =   0
                l(3) =   1
                l(4) =   1
                l(5) =   2
                l(6) =   2
     Q(r) pseudized with 0 coefficients

     PseudoPot. # 2 for  O read from file:
     /home/alatimer/bin/psp/esp_psp_w_gbrvRu/O.UPF
     MD5 check sum: e057bbcf3229fb5d8c36c0c92f9568b4
     Pseudo is Ultrasoft + core correction, Zval =  6.0
     Generated using "atomic" code by A. Dal Corso  v.5.0.2 svn rev. 9415
     Using radial grid of 1095 points,  4 beta functions with:
                l(1) =   0
                l(2) =   0
                l(3) =   1
                l(4) =   1
     Q(r) pseudized with 0 coefficients

     atomic species   valence    mass     pseudopotential
        Ni1           10.00    58.69340     Ni( 1.00)
        O1             6.00    15.99940      O( 1.00)

     Starting magnetic structure
     atomic species   magnetization
        Ni1          0.300
        O1           0.500

     No symmetry found

   Cartesian axes

     site n.     atom                  positions (alat units)
         1           Ni1 tau(   1) = (   0.0000000   1.2580018  23.9893847  )
         2           Ni1 tau(   2) = (   0.0000000   3.7740055  23.9893847  )
         3           Ni1 tau(   3) = (   0.0000000   6.2900092  23.9893847  )
         4           Ni1 tau(   4) = (   4.1086168   0.0000000  23.2630770  )
         5           Ni1 tau(   5) = (   4.1086168   2.5160037  23.2630770  )
         6           Ni1 tau(   6) = (   4.1086168   5.0320073  23.2630770  )
         7           Ni1 tau(   7) = (   2.0543084   1.2580018  22.5367693  )
         8           Ni1 tau(   8) = (   2.0543084   3.7740055  22.5367693  )
         9           Ni1 tau(   9) = (   2.0543084   6.2900092  22.5367693  )
        10           Ni1 tau(  10) = (   0.0000000   0.0000000  21.8104616  )
        11           Ni1 tau(  11) = (   0.0000000   2.5160037  21.8104616  )
        12           Ni1 tau(  12) = (   0.0000000   5.0320073  21.8104616  )
        13           Ni1 tau(  13) = (   4.1086168   1.2580018  21.0841539  )
        14           Ni1 tau(  14) = (   4.1086168   3.7740055  21.0841539  )
        15           Ni1 tau(  15) = (   4.1086168   6.2900092  21.0841539  )
        16           Ni1 tau(  16) = (   2.0543084   0.0000000  20.3578462  )
        17           Ni1 tau(  17) = (   2.0543084   2.5160037  20.3578462  )
        18           Ni1 tau(  18) = (   2.0543084   5.0320073  20.3578462  )
        19           Ni1 tau(  19) = (   0.0000000   1.2580018  19.6315385  )
        20           Ni1 tau(  20) = (   0.0000000   3.7740055  19.6315385  )
        21           Ni1 tau(  21) = (   0.0000000   6.2900092  19.6315385  )
        22           Ni1 tau(  22) = (   4.1086168   0.0000000  18.9052308  )
        23           Ni1 tau(  23) = (   4.1086168   2.5160037  18.9052308  )
        24           Ni1 tau(  24) = (   4.1086168   5.0320073  18.9052308  )
        25           Ni1 tau(  25) = (   2.0543084   1.2580018  18.1789231  )
        26           Ni1 tau(  26) = (   2.0543084   3.7740055  18.1789231  )
        27           Ni1 tau(  27) = (   2.0543084   6.2900092  18.1789231  )
        28           Ni1 tau(  28) = (   0.0000000   0.0000000  17.4526154  )
        29           Ni1 tau(  29) = (   0.0000000   2.5160037  17.4526154  )
        30           Ni1 tau(  30) = (   0.0000000   5.0320073  17.4526154  )
        31           Ni1 tau(  31) = (   4.1086168   1.2580018  16.7263077  )
        32           Ni1 tau(  32) = (   4.1086168   3.7740055  16.7263077  )
        33           Ni1 tau(  33) = (   4.1086168   6.2900092  16.7263077  )
        34           Ni1 tau(  34) = (   2.0543084   0.0000000  16.0000000  )
        35           Ni1 tau(  35) = (   2.0543084   2.5160037  16.0000000  )
        36           Ni1 tau(  36) = (   2.0543084   5.0320073  16.0000000  )
        37           O1  tau(  37) = (   1.9993671   2.6166424  23.7893806  )

     number of k points=    10  Fermi-Dirac smearing, width (Ry)=  0.0073
                       cart. coord. in units 2pi/alat
        k(    1) = (   0.0000000   0.0000000   0.0000000), wk =   0.1111111
        k(    2) = (   0.0000000   0.0441617   0.0000000), wk =   0.2222222
        k(    3) = (   0.0540869   0.0000000   0.0000000), wk =   0.2222222
        k(    4) = (   0.0540869   0.0441617   0.0000000), wk =   0.2222222
        k(    5) = (   0.0540869  -0.0441617   0.0000000), wk =   0.2222222
        k(    6) = (   0.0000000   0.0000000   0.0000000), wk =   0.1111111
        k(    7) = (   0.0000000   0.0441617   0.0000000), wk =   0.2222222
        k(    8) = (   0.0540869   0.0000000   0.0000000), wk =   0.2222222
        k(    9) = (   0.0540869   0.0441617   0.0000000), wk =   0.2222222
        k(   10) = (   0.0540869  -0.0441617   0.0000000), wk =   0.2222222

     Largest allocated arrays     est. size (Mb)     dimensions
     Largest temporary arrays     est. size (Mb)     dimensions

     Check: negative/imaginary core charge=   -0.000002    0.000000

     Initial potential from superposition of free atoms
     Check: negative starting charge=(component1):   -0.000983
     Check: negative starting charge=(component2):   -0.000519

     starting charge  365.99096, renormalised to  366.00000

     negative rho (up, down):  9.828E-04 5.191E-04

     Adding external electric field

     Computed dipole along edir(3) :
        Dipole               -0.0011 Ry au,         -0.0027 Debye
        Dipole field         -0.0000 Ry au

        Potential amp.        0.0002 Ry
        Total length         73.6798 bohr

[...]

     Starting wfc are  328 randomized atomic wfcs

     Self-consistent Calculation

     iteration #  1     ecut=    44.10 Ry     beta=0.10
     Davidson diagonalization with overlap
  python dir          : /home/vossj/suncat/lib/python2.7/site-packages/espresso
  espresso dir        : /home/vossj/suncat/esdld/espresso-dynpy-beef/bin
  pseudo dir          : /home/alatimer/bin/psp/esp_psp_w_gbrvRu/
  ase-espresso py git : ffa2778-git

     Program PWSCF v.5.1rc2 (svn rev. ) starts on 23Mar2018 at  9: 9:41

[...]

     iteration #  1     ecut=    44.10 Ry     beta=0.10
     Davidson diagonalization with overlap
     ethr =  1.00E-02,  avg # of iterations =  8.4

[...]

     Magnetic moment per site:
     atom:    1    charge:    3.9308    magn:    1.1522    constr:    0.0000
     atom:    2    charge:    3.9316    magn:    1.1516    constr:    0.0000
     atom:    3    charge:    3.9306    magn:    1.1514    constr:    0.0000
     atom:    4    charge:    3.9528    magn:    1.1273    constr:    0.0000
     atom:    5    charge:    3.9525    magn:    1.1286    constr:    0.0000
     atom:    6    charge:    3.9533    magn:    1.1269    constr:    0.0000
     atom:    7    charge:    3.9575    magn:    1.1252    constr:    0.0000
     atom:    8    charge:    3.9536    magn:    1.1302    constr:    0.0000
     atom:    9    charge:    3.9641    magn:    1.1161    constr:    0.0000
     atom:   10    charge:    3.9712    magn:    1.1117    constr:    0.0000
     atom:   11    charge:    3.9740    magn:    1.1096    constr:    0.0000
     atom:   12    charge:    3.9713    magn:    1.1118    constr:    0.0000
     atom:   13    charge:    3.9737    magn:    1.1082    constr:    0.0000
     atom:   14    charge:    3.9737    magn:    1.1084    constr:    0.0000
     atom:   15    charge:    3.9742    magn:    1.1075    constr:    0.0000
     atom:   16    charge:    3.9762    magn:    1.1052    constr:    0.0000
     atom:   17    charge:    3.9763    magn:    1.1053    constr:    0.0000
     atom:   18    charge:    3.9764    magn:    1.1047    constr:    0.0000
     atom:   19    charge:    3.9748    magn:    1.1060    constr:    0.0000
     atom:   20    charge:    3.9748    magn:    1.1060    constr:    0.0000
     atom:   21    charge:    3.9750    magn:    1.1058    constr:    0.0000
     atom:   22    charge:    3.9741    magn:    1.1078    constr:    0.0000
     atom:   23    charge:    3.9738    magn:    1.1079    constr:    0.0000
     atom:   24    charge:    3.9741    magn:    1.1078    constr:    0.0000
     atom:   25    charge:    3.9702    magn:    1.1102    constr:    0.0000
     atom:   26    charge:    3.9701    magn:    1.1102    constr:    0.0000
     atom:   27    charge:    3.9706    magn:    1.1095    constr:    0.0000
     atom:   28    charge:    3.9629    magn:    1.1143    constr:    0.0000
     atom:   29    charge:    3.9628    magn:    1.1145    constr:    0.0000
     atom:   30    charge:    3.9629    magn:    1.1144    constr:    0.0000
[...]
               a(3) = (   0.000000   0.000000  39.989385 )

     reciprocal axes: (cart. coord. in units 2 pi/alat)
               b(1) = (  0.162261  0.000000  0.000000 )
               b(2) = (  0.000000  0.132485  0.000000 )
               b(3) = (  0.000000  0.000000  0.025007 )

     PseudoPot. # 1 for Ni read from file:
     /home/alatimer/bin/psp/esp_psp_w_gbrvRu/Ni.UPF
     MD5 check sum: 8b2449ee0060d9c33484ccd47bb60870
     Pseudo is Ultrasoft + core correction, Zval = 10.0
     Generated using "atomic" code by A. Dal Corso  v.5.0.2 svn rev. 9415
     Using radial grid of 1195 points,  6 beta functions with:
                l(1) =   0
                l(2) =   0
                l(3) =   1
                l(4) =   1
                l(5) =   2
                l(6) =   2
     Q(r) pseudized with 0 coefficients

     PseudoPot. # 2 for  O read from file:
     /home/alatimer/bin/psp/esp_psp_w_gbrvRu/O.UPF
     MD5 check sum: e057bbcf3229fb5d8c36c0c92f9568b4
     Pseudo is Ultrasoft + core correction, Zval =  6.0
     Generated using "atomic" code by A. Dal Corso  v.5.0.2 svn rev. 9415
     Using radial grid of 1095 points,  4 beta functions with:
                l(1) =   0
                l(2) =   0
                l(3) =   1
                l(4) =   1
     Q(r) pseudized with 0 coefficients

     atomic species   valence    mass     pseudopotential
        Ni1           10.00    58.69340     Ni( 1.00)
        O1             6.00    15.99940      O( 1.00)

     Starting magnetic structure
     atomic species   magnetization
        Ni1          0.300
        O1           0.500

     No symmetry found

   Cartesian axes

     site n.     atom                  positions (alat units)
         1           Ni1 tau(   1) = (   0.0000000   1.2580018  23.9893847  )
         2           Ni1 tau(   2) = (   0.0000000   3.7740055  23.9893847  )
         3           Ni1 tau(   3) = (   0.0000000   6.2900092  23.9893847  )
         4           Ni1 tau(   4) = (   4.1086168   0.0000000  23.2630770  )
         5           Ni1 tau(   5) = (   4.1086168   2.5160037  23.2630770  )
         6           Ni1 tau(   6) = (   4.1086168   5.0320073  23.2630770  )
         7           Ni1 tau(   7) = (   2.0543084   1.2580018  22.5367693  )
         8           Ni1 tau(   8) = (   2.0543084   3.7740055  22.5367693  )
         9           Ni1 tau(   9) = (   2.0543084   6.2900092  22.5367693  )
        10           Ni1 tau(  10) = (   0.0000000   0.0000000  21.8104616  )
        11           Ni1 tau(  11) = (   0.0000000   2.5160037  21.8104616  )
        12           Ni1 tau(  12) = (   0.0000000   5.0320073  21.8104616  )
        13           Ni1 tau(  13) = (   4.1086168   1.2580018  21.0841539  )
        14           Ni1 tau(  14) = (   4.1086168   3.7740055  21.0841539  )
        15           Ni1 tau(  15) = (   4.1086168   6.2900092  21.0841539  )
        16           Ni1 tau(  16) = (   2.0543084   0.0000000  20.3578462  )
        17           Ni1 tau(  17) = (   2.0543084   2.5160037  20.3578462  )
        18           Ni1 tau(  18) = (   2.0543084   5.0320073  20.3578462  )
        19           Ni1 tau(  19) = (   0.0000000   1.2580018  19.6315385  )
        20           Ni1 tau(  20) = (   0.0000000   3.7740055  19.6315385  )
        21           Ni1 tau(  21) = (   0.0000000   6.2900092  19.6315385  )
        22           Ni1 tau(  22) = (   4.1086168   0.0000000  18.9052308  )
        23           Ni1 tau(  23) = (   4.1086168   2.5160037  18.9052308  )
        24           Ni1 tau(  24) = (   4.1086168   5.0320073  18.9052308  )
        25           Ni1 tau(  25) = (   2.0543084   1.2580018  18.1789231  )
        26           Ni1 tau(  26) = (   2.0543084   3.7740055  18.1789231  )
        27           Ni1 tau(  27) = (   2.0543084   6.2900092  18.1789231  )
        28           Ni1 tau(  28) = (   0.0000000   0.0000000  17.4526154  )
        29           Ni1 tau(  29) = (   0.0000000   2.5160037  17.4526154  )
        30           Ni1 tau(  30) = (   0.0000000   5.0320073  17.4526154  )
        31           Ni1 tau(  31) = (   4.1086168   1.2580018  16.7263077  )
        32           Ni1 tau(  32) = (   4.1086168   3.7740055  16.7263077  )
        33           Ni1 tau(  33) = (   4.1086168   6.2900092  16.7263077  )
        34           Ni1 tau(  34) = (   2.0543084   0.0000000  16.0000000  )
        35           Ni1 tau(  35) = (   2.0543084   2.5160037  16.0000000  )
        36           Ni1 tau(  36) = (   2.0543084   5.0320073  16.0000000  )
        37           O1  tau(  37) = (   1.9993671   2.6166424  23.7893806  )

     number of k points=    10  Fermi-Dirac smearing, width (Ry)=  0.0073
                       cart. coord. in units 2pi/alat
        k(    1) = (   0.0000000   0.0000000   0.0000000), wk =   0.1111111
        k(    2) = (   0.0000000   0.0441617   0.0000000), wk =   0.2222222
        k(    3) = (   0.0540869   0.0000000   0.0000000), wk =   0.2222222
        k(    4) = (   0.0540869   0.0441617   0.0000000), wk =   0.2222222
        k(    5) = (   0.0540869  -0.0441617   0.0000000), wk =   0.2222222
        k(    6) = (   0.0000000   0.0000000   0.0000000), wk =   0.1111111
        k(    7) = (   0.0000000   0.0441617   0.0000000), wk =   0.2222222
        k(    8) = (   0.0540869   0.0000000   0.0000000), wk =   0.2222222
        k(    9) = (   0.0540869   0.0441617   0.0000000), wk =   0.2222222
        k(   10) = (   0.0540869  -0.0441617   0.0000000), wk =   0.2222222

     Largest allocated arrays     est. size (Mb)     dimensions
     Largest temporary arrays     est. size (Mb)     dimensions

     Check: negative/imaginary core charge=   -0.000002    0.000000

     Initial potential from superposition of free atoms
     Check: negative starting charge=(component1):   -0.000983
     Check: negative starting charge=(component2):   -0.000519

     starting charge  365.99096, renormalised to  366.00000

[...]

     Starting wfc are  328 randomized atomic wfcs

[...]

     iteration #  1     ecut=    44.10 Ry     beta=0.10
     Davidson diagonalization with overlap
     c_bands:  1 eigenvalues not converged
     ethr =  2.42E-10,  avg # of iterations =  9.3

[...]

     Writing output data file calc.save
     Check: negative starting charge=(component1):   -0.001507
     NEW-OLD atomic charge density approx. for the potential

     Check: negative/imaginary core charge=   -0.000002    0.000000
     Check: negative starting charge=(component1):   -0.001509

[...]

     Self-consistent Calculation

[...]

     total energy              =   -3656.51120442 Ry
     Harris-Foulkes estimate   =   -3656.51120408 Ry
     estimated scf accuracy    <       0.00000207 Ry

[...]

     iteration # 19     ecut=    44.10 Ry     beta=0.10
     Davidson diagonalization with overlap
     ethr =  2.99E-10,  avg # of iterations =  1.0

     negative rho (up, down):  7.786E-04 6.342E-04

[...]

     Adding external electric field

     Computed dipole along edir(3) :
        Dipole               -0.0757 Ry au,         -0.1923 Debye
        Dipole field         -0.0001 Ry au

        Potential amp.        0.0112 Ry
        Total length         73.6798 bohr

     Magnetic moment per site:
     atom:    1    charge:    3.7412    magn:    0.4099    constr:    0.0000
     atom:    2    charge:    3.7370    magn:    0.4093    constr:    0.0000
     atom:    3    charge:    3.8012    magn:    0.4072    constr:    0.0000
     atom:    4    charge:    3.9058    magn:    0.4253    constr:    0.0000
     atom:    5    charge:    3.8984    magn:    0.3327    constr:    0.0000
     atom:    6    charge:    3.9023    magn:    0.4248    constr:    0.0000
     atom:    7    charge:    3.8147    magn:    0.3153    constr:    0.0000
     atom:    8    charge:    3.8151    magn:    0.3152    constr:    0.0000
     atom:    9    charge:    3.9644    magn:    0.3962    constr:    0.0000
     atom:   10    charge:    3.9581    magn:    0.3957    constr:    0.0000
     atom:   11    charge:    3.9473    magn:    0.3776    constr:    0.0000
     atom:   12    charge:    3.9575    magn:    0.3956    constr:    0.0000
     atom:   13    charge:    3.9633    magn:    0.3964    constr:    0.0000
     atom:   14    charge:    3.9629    magn:    0.3964    constr:    0.0000
     atom:   15    charge:    3.9510    magn:    0.3829    constr:    0.0000
     atom:   16    charge:    3.9641    magn:    0.3688    constr:    0.0000
     atom:   17    charge:    3.9662    magn:    0.3951    constr:    0.0000
     atom:   18    charge:    3.9640    magn:    0.3687    constr:    0.0000
     atom:   19    charge:    3.9680    magn:    0.3869    constr:    0.0000
     atom:   20    charge:    3.9680    magn:    0.3869    constr:    0.0000
     atom:   21    charge:    3.9681    magn:    0.3828    constr:    0.0000
     atom:   22    charge:    3.9696    magn:    0.3908    constr:    0.0000
     atom:   23    charge:    3.9698    magn:    0.4001    constr:    0.0000
     atom:   24    charge:    3.9695    magn:    0.3908    constr:    0.0000
     atom:   25    charge:    3.9684    magn:    0.3887    constr:    0.0000
     atom:   26    charge:    3.9684    magn:    0.3888    constr:    0.0000
     atom:   27    charge:    3.9688    magn:    0.3790    constr:    0.0000
     atom:   28    charge:    3.9689    magn:    0.3989    constr:    0.0000
     atom:   29    charge:    3.9688    magn:    0.3989    constr:    0.0000
     atom:   30    charge:    3.9689    magn:    0.3990    constr:    0.0000
     atom:   31    charge:    3.9746    magn:    0.4180    constr:    0.0000
     atom:   32    charge:    3.9746    magn:    0.4180    constr:    0.0000
     atom:   33    charge:    3.9746    magn:    0.4134    constr:    0.0000
     atom:   34    charge:    3.9839    magn:    0.4296    constr:    0.0000
     atom:   35    charge:    3.9840    magn:    0.4304    constr:    0.0000
     atom:   36    charge:    3.9838    magn:    0.4296    constr:    0.0000
     atom:   37    charge:    1.2679    magn:    0.0434    constr:    0.0000

     End of self-consistent calculation

 ------ SPIN UP ------------

[...]

 ------ SPIN DOWN ----------

[...]

          k = 0.0541-0.0442 0.0000 ( 62079 PWs)   bands (ev):

   -19.5314  -8.4061  -7.5715  -7.3479  -7.0719  -6.6739  -6.4414  -6.3475
    -6.0021  -5.7807  -5.7309  -5.3662  -5.3092  -5.0297  -4.8642  -4.7730
    -4.7162  -4.6457  -4.6035  -4.5391  -4.4851  -4.3770  -4.3061  -4.2127
    -4.1486  -4.1120  -4.0594  -4.0369  -3.9524  -3.9319  -3.9034  -3.8795
    -3.8416  -3.8147  -3.7630  -3.7262  -3.7107  -3.6809  -3.5512  -3.5152
    -3.4845  -3.4599  -3.4507  -3.4244  -3.3982  -3.3374  -3.3036  -3.2698
    -3.2625  -3.2367  -3.2107  -3.1765  -3.1439  -3.1130  -3.0692  -3.0273
    -3.0128  -2.9719  -2.9365  -2.8940  -2.8782  -2.8591  -2.8259  -2.7815
    -2.7529  -2.7179  -2.7110  -2.6903  -2.6633  -2.6259  -2.6084  -2.5845
    -2.5661  -2.5471  -2.5320  -2.4914  -2.4633  -2.4567  -2.4309  -2.4081
    -2.3991  -2.3704  -2.3538  -2.3465  -2.3359  -2.3121  -2.2885  -2.2691
    -2.2496  -2.2202  -2.2084  -2.1836  -2.1679  -2.1502  -2.1398  -2.1109
    -2.1021  -2.0797  -2.0584  -2.0322  -2.0181  -1.9998  -1.9802  -1.9652
    -1.9574  -1.9409  -1.9034  -1.8837  -1.8602  -1.8394  -1.8163  -1.7855
    -1.7493  -1.7428  -1.7369  -1.7223  -1.6999  -1.6871  -1.6658  -1.6366
    -1.6215  -1.6069  -1.5880  -1.5538  -1.5291  -1.5223  -1.5158  -1.4913
    -1.4763  -1.4442  -1.4229  -1.4081  -1.3726  -1.3504  -1.3208  -1.3142
    -1.3000  -1.2733  -1.2472  -1.2272  -1.2144  -1.1939  -1.1890  -1.1523
    -1.1435  -1.1138  -1.1045  -1.0800  -1.0539  -1.0370  -1.0214  -1.0045
    -0.9966  -0.9807  -0.9587  -0.9387  -0.9176  -0.8973  -0.8885  -0.8715
    -0.8568  -0.8400  -0.8229  -0.7824  -0.7780  -0.7563  -0.7427  -0.7252
    -0.6992  -0.6743  -0.6597  -0.6486  -0.6178  -0.6057  -0.5814  -0.5638
    -0.5489  -0.5387  -0.5246  -0.5164  -0.5043  -0.4986  -0.4883  -0.4689
    -0.4568  -0.4380  -0.4109  -0.3906  -0.3861  -0.3717  -0.3544  -0.3166
    -0.2905  -0.2088  -0.1150  -0.0093   0.0766   0.1963   0.3301   0.5078
     0.6238   0.7724   0.8893   0.9363   1.0132   1.2177   1.6456   1.8190
     2.0029   2.0597   2.1569   2.3363   2.3724   2.5235   2.8659   3.1122
     3.2669   3.4113   3.5651   3.8497   4.0713   4.2122   4.2521   4.3222
     4.4420   4.6058   4.6303   4.8169   4.9364   5.0107   5.0871   5.1221
     5.1409   5.2633   5.3435   5.4534   5.4924   5.5183   5.5549   5.6613
     5.7591   5.7995   5.8533   5.9293   6.0617   6.1212   6.1755   6.2227
     6.2492   6.2754   6.3783   6.4181   6.4991   6.5829   6.6103   6.6378
     6.6709   6.7759   6.8491   6.9120   7.0207   7.0473   7.0763   7.1116
     7.1625   7.4389   7.4983   7.6214   7.7005   7.7549   7.8530   7.8706
     7.9356   8.0052   8.0571   8.1200   8.1892   8.3067   8.3919   8.4691
     8.5259   8.6410   8.6780

     the Fermi energy is    -0.6680 ev

!    total energy              =   -3656.51120646 Ry
     Harris-Foulkes estimate   =   -3656.51120393 Ry
     estimated scf accuracy    <       0.00000055 Ry

     The total energy is the sum of the following terms:

     one-electron contribution =  -78025.18766865 Ry
     hartree contribution      =   39375.98972956 Ry
     xc contribution           =   -1514.40108160 Ry
     ewald contribution        =   36507.24830717 Ry
     electric field correction =       0.00000573 Ry
     smearing contrib. (-TS)   =      -0.16049867 Ry

     total magnetization       =    23.62 Bohr mag/cell
     absolute magnetization    =    27.08 Bohr mag/cell

     convergence has been achieved in  19 iterations

     Forces acting on atoms (Ry/au):

     negative rho (up, down):  7.786E-04 6.342E-04
     atom    1 type  1   force =     0.00060267   -0.00016750   -0.00022719
     atom    2 type  1   force =     0.00028391    0.00004920    0.00031298
     atom    3 type  1   force =    -0.00002547    0.00012652   -0.00026442
     atom    4 type  1   force =    -0.00010723   -0.00028011   -0.00042940
     atom    5 type  1   force =    -0.00058078   -0.00017808    0.00086072
     atom    6 type  1   force =    -0.00006285    0.00023029   -0.00027146
     atom    7 type  1   force =    -0.00004352   -0.00021645   -0.00043151
     atom    8 type  1   force =    -0.00003773    0.00028533   -0.00035171
     atom    9 type  1   force =     0.00027046   -0.00010506   -0.00006435
     atom   10 type  1   force =    -0.00009255   -0.00016889    0.00029209
     atom   11 type  1   force =     0.00068603   -0.00007056    0.00004175
     atom   12 type  1   force =    -0.00003334    0.00003435    0.00032856
     atom   13 type  1   force =    -0.00003630   -0.00009867    0.00011819
     atom   14 type  1   force =     0.00013547    0.00013614    0.00012162
     atom   15 type  1   force =     0.00030127    0.00008666    0.00029646
     atom   16 type  1   force =     0.00030638   -0.00059930    0.00029072
     atom   17 type  1   force =     0.00004816   -0.00012435   -0.00048458
     atom   18 type  1   force =     0.00031876    0.00053481   -0.00004325
     atom   19 type  1   force =    -0.00017523    0.00044914   -0.00164308
     atom   20 type  1   force =    -0.00019461   -0.00016659   -0.00174024
     atom   21 type  1   force =     0.00222726    0.00000372   -0.00431160
     atom   22 type  1   force =     0.00256106    0.00099194   -0.00229458
     atom   23 type  1   force =     0.00306774    0.00013753   -0.00163765
     atom   24 type  1   force =     0.00253657   -0.00104092   -0.00233466
     atom   25 type  1   force =    -0.00320642   -0.00045308   -0.00882938
     atom   26 type  1   force =    -0.00320597    0.00067775   -0.00881432
     atom   27 type  1   force =    -0.00308054   -0.00011128   -0.01164889
     atom   28 type  1   force =    -0.00175892   -0.00018061   -0.01070758
     atom   29 type  1   force =    -0.00208981    0.00010848   -0.01032445
     atom   30 type  1   force =    -0.00175073    0.00008682   -0.01065590
     atom   31 type  1   force =    -0.00521407    0.00009158    0.00305367
     atom   32 type  1   force =    -0.00523013    0.00001026    0.00311304
     atom   33 type  1   force =    -0.00518925   -0.00009498    0.00398786
     atom   34 type  1   force =     0.00597353    0.00037311    0.02169583
     atom   35 type  1   force =     0.00619350    0.00008448    0.02138388
     atom   36 type  1   force =     0.00596983   -0.00044885    0.02175381
     atom   37 type  2   force =     0.00063286    0.00000719   -0.00014098

     Total force =     0.048661     Total SCF correction =     0.003043
 !ASE

     Writing output data file calc.save

     General routines

     Parallel routines

   This run was terminated on:   6: 0:45  24Mar2018

   JOB DONE.