     Program PWSCF v.5.1rc2 (svn rev. ) starts on  5Mar2018 at 12:29:29

     Current dimensions of program PWSCF are:
     Max number of different atomic species (ntypx) = 10
     Max number of k-points (npk) =  40000
     Max angular momentum in pseudopotentials (lmaxx) =  3
     Presently no symmetry can be used with electric field

     IMPORTANT: XC functional enforced from input :
     Exchange-correlation      = RPBE ( 1  4 28  4 0)
     Any further DFT definition will be discarded
     Please, verify this is what you really want

               file Ni.UPF: wavefunction(s)  3D renormalized

     Subspace diagonalization in iterative solution of the eigenvalue problem:
     a serial algorithm will be used

     Generating pointlists ...
     new r_m :   0.4125 (alat units)  0.7795 (a.u.) for type    1
     new r_m :   0.4125 (alat units)  0.7795 (a.u.) for type    2

     bravais-lattice index     =            0
     lattice parameter (alat)  =       1.8897  a.u.
     unit-cell volume          =   10207.8337 (a.u.)^3
     number of atoms/cell      =           37
     number of atomic types    =            2
     number of electrons       =       366.00
     number of Kohn-Sham states=          283
     kinetic-energy cutoff     =      44.0992  Ry
     charge density cutoff     =     440.9919  Ry
     convergence threshold     =      7.3E-07
     mixing beta               =       0.1000
     number of iterations used =           10  plain     mixing
     Exchange-correlation      = RPBE ( 1  4 28  4 0)
     nstep                     =           50

     celldm(1)=   1.889726  celldm(2)=   0.000000  celldm(3)=   0.000000
     celldm(4)=   0.000000  celldm(5)=   0.000000  celldm(6)=   0.000000

     crystal axes: (cart. coord. in units of alat)
               a(1) = (  13.073539   0.000000   0.000000 )
               a(2) = (  -4.357846   6.162925   0.000000 )
               a(3) = (   0.000000   0.000000  18.774005 )

     reciprocal axes: (cart. coord. in units 2 pi/alat)
               b(1) = (  0.076490  0.054087  0.000000 )
               b(2) = (  0.000000  0.162261  0.000000 )
               b(3) = (  0.000000  0.000000  0.053265 )

     PseudoPot. # 1 for Ni read from file:
     /home/alatimer/bin/psp/esp_psp_w_gbrvRu/Ni.UPF
     MD5 check sum: 8b2449ee0060d9c33484ccd47bb60870
     Pseudo is Ultrasoft + core correction, Zval = 10.0
     Generated using "atomic" code by A. Dal Corso  v.5.0.2 svn rev. 9415
     Using radial grid of 1195 points,  6 beta functions with:
                l(1) =   0
                l(2) =   0
                l(3) =   1
                l(4) =   1
                l(5) =   2
                l(6) =   2
     Q(r) pseudized with 0 coefficients

     PseudoPot. # 2 for  O read from file:
     /home/alatimer/bin/psp/esp_psp_w_gbrvRu/O.UPF
     MD5 check sum: e057bbcf3229fb5d8c36c0c92f9568b4
     Pseudo is Ultrasoft + core correction, Zval =  6.0
     Generated using "atomic" code by A. Dal Corso  v.5.0.2 svn rev. 9415
     Using radial grid of 1095 points,  4 beta functions with:
                l(1) =   0
                l(2) =   0
                l(3) =   1
                l(4) =   1
     Q(r) pseudized with 0 coefficients

     atomic species   valence    mass     pseudopotential
        Ni1           10.00    58.69340     Ni( 1.00)
        O1             6.00    15.99940      O( 1.00)

     Starting magnetic structure
     atomic species   magnetization
        Ni1          0.300
        O1           0.500

     No symmetry found

   Cartesian axes

     site n.     atom                  positions (alat units)
         1           Ni1 tau(   1) = (   0.0000000   0.0000000   7.5000000  )
         2           Ni1 tau(   2) = (   2.1789231   0.0000000   8.7580018  )
         3           Ni1 tau(   3) = (   0.0000000   0.0000000  10.0160037  )
         4           Ni1 tau(   4) = (   2.1789231   0.0000000  11.2740055  )
         5           Ni1 tau(   5) = (  -1.4526154   2.0543084   7.5000000  )
         6           Ni1 tau(   6) = (   0.7263077   2.0543084   8.7580018  )
         7           Ni1 tau(   7) = (  -1.4526154   2.0543084  10.0160037  )
         8           Ni1 tau(   8) = (   0.7263077   2.0543084  11.2740055  )
         9           Ni1 tau(   9) = (  -2.9052308   4.1086168   7.5000000  )
        10           Ni1 tau(  10) = (  -0.7263077   4.1086168   8.7580018  )
        11           Ni1 tau(  11) = (  -2.9052308   4.1086168  10.0160037  )
        12           Ni1 tau(  12) = (  -0.7263077   4.1086168  11.2740055  )
        13           Ni1 tau(  13) = (   4.3578462   0.0000000   7.5000000  )
        14           Ni1 tau(  14) = (   6.5367693   0.0000000   8.7580018  )
        15           Ni1 tau(  15) = (   4.3578462   0.0000000  10.0160037  )
        16           Ni1 tau(  16) = (   6.5367693   0.0000000  11.2740055  )
        17           Ni1 tau(  17) = (   2.9052308   2.0543084   7.5000000  )
        18           Ni1 tau(  18) = (   5.0841539   2.0543084   8.7580018  )
        19           Ni1 tau(  19) = (   2.9052308   2.0543084  10.0160037  )
        20           Ni1 tau(  20) = (   5.0841539   2.0543084  11.2740055  )
        21           Ni1 tau(  21) = (   1.4526154   4.1086168   7.5000000  )
        22           Ni1 tau(  22) = (   3.6315385   4.1086168   8.7580018  )
        23           Ni1 tau(  23) = (   1.4526154   4.1086168  10.0160037  )
        24           Ni1 tau(  24) = (   3.6315385   4.1086168  11.2740055  )
        25           Ni1 tau(  25) = (   8.7156924   0.0000000   7.5000000  )
        26           Ni1 tau(  26) = (  10.8946154   0.0000000   8.7580018  )
        27           Ni1 tau(  27) = (   8.7156924   0.0000000  10.0160037  )
        28           Ni1 tau(  28) = (  10.8946154   0.0000000  11.2740055  )
        29           Ni1 tau(  29) = (   7.2630770   2.0543084   7.5000000  )
        30           Ni1 tau(  30) = (   9.4420001   2.0543084   8.7580018  )
        31           Ni1 tau(  31) = (   7.2630770   2.0543084  10.0160037  )
        32           Ni1 tau(  32) = (   9.4420001   2.0543084  11.2740055  )
        33           Ni1 tau(  33) = (   5.8104616   4.1086168   7.5000000  )
        34           Ni1 tau(  34) = (   7.9893847   4.1086168   8.7580018  )
        35           Ni1 tau(  35) = (   5.8104616   4.1086168  10.0160037  )
        36           Ni1 tau(  36) = (   7.9893847   4.1086168  11.2740055  )
        37           O1  tau(  37) = (   2.9468202   2.0595393  12.8545716  )

     number of k points=    10  Fermi-Dirac smearing, width (Ry)=  0.0073
                       cart. coord. in units 2pi/alat
        k(    1) = (   0.0000000   0.0000000   0.0000000), wk =   0.1111111
        k(    2) = (   0.0000000   0.0540869   0.0000000), wk =   0.2222222
        k(    3) = (   0.0254968   0.0180290   0.0000000), wk =   0.2222222
        k(    4) = (   0.0254968   0.0721158   0.0000000), wk =   0.2222222
        k(    5) = (   0.0254968  -0.0360579   0.0000000), wk =   0.2222222
        k(    6) = (   0.0000000   0.0000000   0.0000000), wk =   0.1111111
        k(    7) = (   0.0000000   0.0540869   0.0000000), wk =   0.2222222
        k(    8) = (   0.0254968   0.0180290   0.0000000), wk =   0.2222222
        k(    9) = (   0.0254968   0.0721158   0.0000000), wk =   0.2222222
        k(   10) = (   0.0254968  -0.0360579   0.0000000), wk =   0.2222222

     Largest allocated arrays     est. size (Mb)     dimensions
     Largest temporary arrays     est. size (Mb)     dimensions

     Check: negative/imaginary core charge=   -0.000003    0.000000

     Initial potential from superposition of free atoms
     Check: negative starting charge=(component1):   -0.000542
     Check: negative starting charge=(component2):   -0.000285

     starting charge  365.99096, renormalised to  366.00000

     negative rho (up, down):  5.416E-04 2.847E-04

     Adding external electric field

     Computed dipole along edir(3) :
        Dipole               -0.0010 Ry au,         -0.0024 Debye
        Dipole field         -0.0000 Ry au

        Potential amp.        0.0001 Ry
        Total length         34.5908 bohr

[...]

     Starting wfc are  328 randomized atomic wfcs

     Self-consistent Calculation

     iteration #  1     ecut=    44.10 Ry     beta=0.10
     Davidson diagonalization with overlap
     ethr =  1.00E-02,  avg # of iterations =  7.2

[...]

     Magnetic moment per site:
     atom:    1    charge:    3.9576    magn:    1.1235    constr:    0.0000
     atom:    2    charge:    3.9773    magn:    1.1063    constr:    0.0000
     atom:    3    charge:    3.9776    magn:    1.1062    constr:    0.0000
     atom:    4    charge:    3.9578    magn:    1.1236    constr:    0.0000
     atom:    5    charge:    3.9575    magn:    1.1235    constr:    0.0000
     atom:    6    charge:    3.9773    magn:    1.1063    constr:    0.0000
     atom:    7    charge:    3.9778    magn:    1.1059    constr:    0.0000
     atom:    8    charge:    3.9577    magn:    1.1237    constr:    0.0000
     atom:    9    charge:    3.9576    magn:    1.1235    constr:    0.0000
     atom:   10    charge:    3.9774    magn:    1.1064    constr:    0.0000
     atom:   11    charge:    3.9779    magn:    1.1059    constr:    0.0000
     atom:   12    charge:    3.9574    magn:    1.1237    constr:    0.0000
     atom:   13    charge:    3.9578    magn:    1.1235    constr:    0.0000
     atom:   14    charge:    3.9774    magn:    1.1064    constr:    0.0000
     atom:   15    charge:    3.9773    magn:    1.1064    constr:    0.0000
     atom:   16    charge:    3.9574    magn:    1.1237    constr:    0.0000
     atom:   17    charge:    3.9576    magn:    1.1240    constr:    0.0000
     atom:   18    charge:    3.9773    magn:    1.1063    constr:    0.0000
     atom:   19    charge:    3.9761    magn:    1.1088    constr:    0.0000
     atom:   20    charge:    3.9578    magn:    1.1236    constr:    0.0000
     atom:   21    charge:    3.9577    magn:    1.1235    constr:    0.0000
     atom:   22    charge:    3.9773    magn:    1.1063    constr:    0.0000
     atom:   23    charge:    3.9773    magn:    1.1064    constr:    0.0000
     atom:   24    charge:    3.9578    magn:    1.1236    constr:    0.0000
     atom:   25    charge:    3.9575    magn:    1.1235    constr:    0.0000
     atom:   26    charge:    3.9774    magn:    1.1062    constr:    0.0000
     atom:   27    charge:    3.9779    magn:    1.1058    constr:    0.0000
     atom:   28    charge:    3.9575    magn:    1.1235    constr:    0.0000
     atom:   29    charge:    3.9576    magn:    1.1235    constr:    0.0000
     atom:   30    charge:    3.9774    magn:    1.1062    constr:    0.0000
     atom:   31    charge:    3.9779    magn:    1.1058    constr:    0.0000
     atom:   32    charge:    3.9576    magn:    1.1234    constr:    0.0000
     atom:   33    charge:    3.9576    magn:    1.1235    constr:    0.0000
     atom:   34    charge:    3.9774    magn:    1.1062    constr:    0.0000
     atom:   35    charge:    3.9776    magn:    1.1062    constr:    0.0000
[...]
    -2.0996  -2.0308  -2.0200  -2.0004  -1.9990  -1.9978  -1.9936  -1.9335
    -1.9291  -1.8773  -1.8662  -1.8277  -1.8226  -1.8224  -1.8178  -1.8096
    -1.8094  -1.8034  -1.7893  -1.7857  -1.7853  -1.7593  -1.7478  -1.6987
    -1.6915  -1.6866  -1.6760  -1.5943  -1.5782  -1.5732  -1.4893  -1.4782
    -1.4774  -1.4484  -1.4380  -1.4187  -1.3834  -1.3781  -1.3716  -1.3488
    -1.3434  -1.2889  -1.2822  -1.2759  -1.2381  -1.2306  -1.2293  -1.2075
    -1.1968  -1.1907  -1.1813  -1.1726  -1.1667  -1.1502  -1.1442  -1.0852
    -1.0667  -1.0662  -1.0362  -1.0064  -0.9962  -0.9920  -0.9831  -0.9685
    -0.9555  -0.9443  -0.9337  -0.9208  -0.8841  -0.8743  -0.8698  -0.8401
    -0.8325  -0.8290  -0.7938  -0.7868  -0.7850  -0.7777  -0.7639  -0.7569
    -0.7487  -0.7419  -0.7230  -0.7012  -0.6834  -0.6703  -0.6535  -0.6418
    -0.6390  -0.6302  -0.6260  -0.6239  -0.5893  -0.5888  -0.5829  -0.5809
    -0.5740  -0.5723  -0.5537  -0.5518  -0.5377  -0.5325  -0.5137  -0.5084
    -0.5061  -0.5004  -0.4988  -0.4879  -0.4512  -0.4468  -0.4284  -0.4050
    -0.3762  -0.3712  -0.3706  -0.3687  -0.3630  -0.3556  -0.3300  -0.3068
    -0.2991  -0.2616  -0.2595  -0.2529  -0.1654  -0.1601   0.3208   0.3729
     0.4661   1.0925   1.1486   1.3627   1.4125   1.4715   1.5377   2.4957
     2.5185   2.6200   2.6264   2.7795   2.7962   2.8039   2.8382   2.9325
     3.2862   3.4785   3.9220   3.9349   3.9792   4.1529   4.2288   4.3748
     4.9578   4.9813   5.2401   5.4028   5.4191   5.4481   5.4628   5.5119
     5.5263   5.6119   5.9648   5.9782   6.0510   6.0832   6.4169   6.4243
     6.4304   6.5689   6.7233   6.7929   6.8001   6.8939   7.2107   7.3935
     7.5519   7.5603   7.5958   7.5996   7.6125   7.6540   7.8306   7.9010
     7.9318   7.9419   7.9871   8.0479   8.0575   8.0771   8.1106   8.4204
     8.4241   8.4507   8.4555   8.5097   8.5767   8.6082   8.6478   8.6964
     8.8622   9.0151   9.0171   9.0356   9.0511   9.2744   9.2906   9.4802
     9.4823   9.4871   9.4894

[...]

 ------ SPIN DOWN ----------

[...]

     the Fermi energy is     0.2444 ev

!    total energy              =   -3655.66116281 Ry
     Harris-Foulkes estimate   =   -3655.66115982 Ry
     estimated scf accuracy    <       0.00000071 Ry

     The total energy is the sum of the following terms:

     one-electron contribution =  -18739.25944202 Ry
     hartree contribution      =    9747.75076956 Ry
     xc contribution           =   -1513.34178166 Ry
     ewald contribution        =    6849.37820553 Ry
     electric field correction =       0.00048068 Ry
     smearing contrib. (-TS)   =      -0.18939489 Ry

[...]

     convergence has been achieved in  64 iterations

     Forces acting on atoms (Ry/au):

     negative rho (up, down):  4.076E-04 2.948E-04
     atom    1 type  1   force =     0.00022258    0.00022483    0.01918287
     atom    2 type  1   force =    -0.00046423   -0.00065560   -0.01073212
     atom    3 type  1   force =    -0.00036019   -0.00019759    0.00974293
     atom    4 type  1   force =     0.01049866    0.01636789    0.00655867
     atom    5 type  1   force =     0.00043899   -0.00034765    0.01923681
     atom    6 type  1   force =    -0.00078560   -0.00015424   -0.01069061
     atom    7 type  1   force =     0.00266018    0.00002151    0.01197999
     atom    8 type  1   force =     0.01779641    0.00415229    0.00537140
     atom    9 type  1   force =    -0.00013991    0.00048371    0.01921252
     atom   10 type  1   force =     0.00022776    0.00009038   -0.00984172
     atom   11 type  1   force =     0.00094832    0.00246722    0.01199123
     atom   12 type  1   force =    -0.00077410   -0.00068250   -0.02142341
     atom   13 type  1   force =    -0.00028872    0.00052938    0.01882498
     atom   14 type  1   force =    -0.00010475   -0.00013451   -0.00965006
     atom   15 type  1   force =     0.00276015   -0.00363724    0.00571140
     atom   16 type  1   force =     0.00105203    0.00061138   -0.02154388
     atom   17 type  1   force =     0.00000079    0.00006211    0.02188239
     atom   18 type  1   force =     0.00096113    0.00019454   -0.01066348
     atom   19 type  1   force =    -0.00015424    0.00000146    0.00443559
     atom   20 type  1   force =    -0.02137706   -0.00433973    0.00987190
     atom   21 type  1   force =     0.00041114   -0.00047358    0.01885145
     atom   22 type  1   force =     0.00044177    0.00086079   -0.01061900
     atom   23 type  1   force =    -0.00242507    0.00369359    0.00583739
     atom   24 type  1   force =    -0.01051305   -0.01767322    0.00855765
     atom   25 type  1   force =     0.00010075   -0.00050483    0.01932543
     atom   26 type  1   force =    -0.00021723    0.00028177   -0.01047817
     atom   27 type  1   force =    -0.00116637   -0.00255275    0.01200277
     atom   28 type  1   force =    -0.00000514   -0.00015614   -0.01989867
     atom   29 type  1   force =    -0.00041683    0.00022027    0.01930992
     atom   30 type  1   force =     0.00010324   -0.00004615   -0.01186947
     atom   31 type  1   force =    -0.00278438   -0.00029543    0.01200098
     atom   32 type  1   force =    -0.00008144   -0.00011871   -0.01986045
     atom   33 type  1   force =    -0.00034672   -0.00017395    0.01926663
     atom   34 type  1   force =     0.00013796   -0.00023812   -0.01050359
     atom   35 type  1   force =     0.00027549    0.00024634    0.00968134
     atom   36 type  1   force =    -0.00019140    0.00010076   -0.01987234
     atom   37 type  2   force =     0.00355908    0.00177173   -0.09118930

     Total force =     0.132824     Total SCF correction =     0.002681
 !ASE

     Writing output data file calc.save
     Check: negative starting charge=(component1):   -0.000825
     NEW-OLD atomic charge density approx. for the potential

     Check: negative/imaginary core charge=   -0.000003    0.000000
     Check: negative starting charge=(component1):   -0.000860

[...]

     iteration # 14     ecut=    44.10 Ry     beta=0.10
     Davidson diagonalization with overlap
     c_bands:  2 eigenvalues not converged
     ethr =  6.93E-08,  avg # of iterations =  6.3

[...]

     Writing output data file calc.save
     Check: negative starting charge=(component1):   -0.000881
     NEW-OLD atomic charge density approx. for the potential

     Check: negative/imaginary core charge=   -0.000003    0.000000
     Check: negative starting charge=(component1):   -0.000881

[...]

     Self-consistent Calculation

[...]

     total energy              =   -3655.85019116 Ry
     Harris-Foulkes estimate   =   -3655.85019033 Ry
     estimated scf accuracy    <       0.00000074 Ry

[...]

     iteration # 18     ecut=    44.10 Ry     beta=0.10
     Davidson diagonalization with overlap
     ethr =  2.02E-10,  avg # of iterations =  1.0

     negative rho (up, down):  4.307E-04 3.250E-04

[...]

     Adding external electric field

     Computed dipole along edir(3) :
        Dipole               -0.1358 Ry au,         -0.3452 Debye
        Dipole field         -0.0002 Ry au

        Potential amp.        0.0116 Ry
        Total length         34.5908 bohr

     Magnetic moment per site:
     atom:    1    charge:    3.9860    magn:    0.4325    constr:    0.0000
     atom:    2    charge:    3.9708    magn:    0.3965    constr:    0.0000
     atom:    3    charge:    3.9650    magn:    0.3945    constr:    0.0000
     atom:    4    charge:    3.7760    magn:    0.4118    constr:    0.0000
     atom:    5    charge:    3.9861    magn:    0.4271    constr:    0.0000
     atom:    6    charge:    3.9708    magn:    0.3965    constr:    0.0000
     atom:    7    charge:    3.9623    magn:    0.3919    constr:    0.0000
     atom:    8    charge:    3.7765    magn:    0.4118    constr:    0.0000
     atom:    9    charge:    3.9861    magn:    0.4271    constr:    0.0000
     atom:   10    charge:    3.9707    magn:    0.3955    constr:    0.0000
     atom:   11    charge:    3.9622    magn:    0.3919    constr:    0.0000
     atom:   12    charge:    3.8612    magn:    0.4201    constr:    0.0000
     atom:   13    charge:    3.9858    magn:    0.4352    constr:    0.0000
     atom:   14    charge:    3.9708    magn:    0.3930    constr:    0.0000
     atom:   15    charge:    3.9589    magn:    0.4021    constr:    0.0000
     atom:   16    charge:    3.8433    magn:    0.4204    constr:    0.0000
     atom:   17    charge:    3.9856    magn:    0.4275    constr:    0.0000
     atom:   18    charge:    3.9715    magn:    0.3924    constr:    0.0000
     atom:   19    charge:    3.7108    magn:    0.3270    constr:    0.0000
     atom:   20    charge:    3.8828    magn:    0.3053    constr:    0.0000
     atom:   21    charge:    3.9858    magn:    0.4352    constr:    0.0000
     atom:   22    charge:    3.9715    magn:    0.3924    constr:    0.0000
     atom:   23    charge:    3.9593    magn:    0.4022    constr:    0.0000
     atom:   24    charge:    3.8860    magn:    0.3063    constr:    0.0000
     atom:   25    charge:    3.9860    magn:    0.4362    constr:    0.0000
     atom:   26    charge:    3.9706    magn:    0.3936    constr:    0.0000
     atom:   27    charge:    3.9688    magn:    0.3636    constr:    0.0000
     atom:   28    charge:    3.8829    magn:    0.4183    constr:    0.0000
     atom:   29    charge:    3.9860    magn:    0.4361    constr:    0.0000
     atom:   30    charge:    3.9711    magn:    0.3929    constr:    0.0000
     atom:   31    charge:    3.9684    magn:    0.3636    constr:    0.0000
     atom:   32    charge:    3.8839    magn:    0.4133    constr:    0.0000
     atom:   33    charge:    3.9858    magn:    0.4427    constr:    0.0000
     atom:   34    charge:    3.9706    magn:    0.3937    constr:    0.0000
     atom:   35    charge:    3.9598    magn:    0.4023    constr:    0.0000
     atom:   36    charge:    3.8825    magn:    0.4182    constr:    0.0000
     atom:   37    charge:    0.0580    magn:    0.0008    constr:    0.0000

     End of self-consistent calculation

 ------ SPIN UP ------------

[...]

 ------ SPIN DOWN ----------

[...]

          k = 0.0255-0.0361 0.0000 ( 50488 PWs)   bands (ev):

   -18.3762  -7.0716  -6.2320  -5.8753  -5.8046  -5.1790  -5.1314  -4.8291
    -4.6353  -4.4548  -4.2712  -3.7310  -3.6908  -3.6050  -3.5135  -3.3364
    -3.3276  -3.2792  -3.2567  -3.1998  -3.0189  -2.9740  -2.9531  -2.9249
    -2.8917  -2.8623  -2.7858  -2.7559  -2.6497  -2.6463  -2.5778  -2.5519
    -2.5366  -2.5093  -2.4598  -2.4444  -2.3933  -2.3645  -2.3056  -2.2721
    -2.1855  -2.1561  -2.0911  -2.0867  -2.0720  -2.0573  -2.0310  -2.0212
    -2.0058  -1.9886  -1.9741  -1.9423  -1.9093  -1.8816  -1.7943  -1.7158
    -1.6952  -1.6586  -1.6358  -1.5633  -1.5477  -1.5246  -1.5115  -1.5025
    -1.4665  -1.4509  -1.4397  -1.4193  -1.4105  -1.4017  -1.3898  -1.3815
    -1.3795  -1.3724  -1.3564  -1.3438  -1.3311  -1.3107  -1.2275  -1.1802
    -1.1702  -1.1362  -1.0923  -1.0745  -1.0686  -1.0539  -1.0486  -1.0335
    -1.0262  -0.9959  -0.9739  -0.9531  -0.9526  -0.9217  -0.9118  -0.8749
    -0.8660  -0.8400  -0.8277  -0.8154  -0.8026  -0.7881  -0.7666  -0.7385
    -0.7121  -0.7046  -0.6991  -0.6960  -0.6618  -0.6450  -0.6334  -0.6172
    -0.5572  -0.5518  -0.5321  -0.5017  -0.4657  -0.4420  -0.4324  -0.4218
    -0.4084  -0.3965  -0.3845  -0.3720  -0.3512  -0.2985  -0.2874  -0.2693
    -0.2493  -0.2124  -0.1793  -0.1678  -0.1596  -0.1371  -0.1073  -0.1008
    -0.0818  -0.0610  -0.0413  -0.0111   0.0130   0.0356   0.0555   0.0706
     0.0995   0.1251   0.1296   0.1476   0.1556   0.1597   0.1776   0.1852
     0.2029   0.2068   0.2274   0.2334   0.2577   0.2739   0.2924   0.3130
     0.3296   0.3384   0.3402   0.3474   0.3638   0.3850   0.4009   0.4130
     0.4294   0.4360   0.4412   0.4606   0.4683   0.4752   0.4869   0.4951
     0.5122   0.5150   0.5317   0.5495   0.5675   0.6026   0.6063   0.6341
     0.6659   0.6729   0.6828   0.6925   0.6948   0.7141   0.7524   0.8200
     0.8627   0.9549   1.1644   1.2065   1.2565   1.3344   1.3714   1.4072
     1.5808   1.5965   1.8682   1.9544   2.0623   2.3059   2.4198   2.5236
     2.8471   2.9526   3.0990   3.1193   3.2757   3.3900   3.4551   3.5453
     3.5921   3.6868   3.9241   4.0949   4.2644   4.3770   4.4946   4.5675
     4.7333   5.1613   5.1666   5.2734   5.3266   5.4214   5.5261   5.7730
     5.7823   5.8176   6.0395   6.1314   6.2788   6.3791   6.5442   6.6084
     6.6616   6.6744   6.7682   6.8390   6.8674   6.9452   7.0150   7.0542
     7.1120   7.1536   7.3508   7.4374   7.6678   7.7321   7.9064   7.9537
     8.0828   8.1251   8.1742   8.2376   8.3498   8.3986   8.4700   8.6275
     8.7293   8.8296   8.8394   8.8823   9.0130   9.0724   9.0861   9.1809
     9.2720   9.5402   9.5692   9.6609   9.7249   9.8123   9.8461   9.8718
     9.8880   9.9275   9.9708

     the Fermi energy is     0.4478 ev

!    total energy              =   -3655.85019642 Ry
     Harris-Foulkes estimate   =   -3655.85019130 Ry
     estimated scf accuracy    <       0.00000046 Ry

     The total energy is the sum of the following terms:

     one-electron contribution =  -19126.62651797 Ry
     hartree contribution      =    9942.91255789 Ry
     xc contribution           =   -1513.86293053 Ry
     ewald contribution        =    7041.91277581 Ry
     electric field correction =       0.00002271 Ry
     smearing contrib. (-TS)   =      -0.18610432 Ry

     total magnetization       =    24.35 Bohr mag/cell
     absolute magnetization    =    27.92 Bohr mag/cell

     convergence has been achieved in  18 iterations

     Forces acting on atoms (Ry/au):

     negative rho (up, down):  4.307E-04 3.250E-04
     atom    1 type  1   force =     0.00017701    0.00008659    0.01821990
     atom    2 type  1   force =     0.00062574    0.00423478   -0.01772662
     atom    3 type  1   force =     0.00003582   -0.00008259   -0.00008206
     atom    4 type  1   force =     0.00050780    0.00036326   -0.00007051
     atom    5 type  1   force =     0.00057279   -0.00024990    0.01845319
     atom    6 type  1   force =     0.00429397   -0.00081081   -0.01772418
     atom    7 type  1   force =     0.00031136   -0.00036516   -0.00009315
     atom    8 type  1   force =     0.00051125    0.00014877   -0.00004690
     atom    9 type  1   force =    -0.00003258    0.00062983    0.01841611
     atom   10 type  1   force =    -0.00176882   -0.00125800   -0.01956639
     atom   11 type  1   force =    -0.00017294    0.00044096   -0.00003340
     atom   12 type  1   force =     0.00038708    0.00008698   -0.00027771
     atom   13 type  1   force =    -0.00089960    0.00109260    0.01910798
     atom   14 type  1   force =    -0.00097119   -0.00062708   -0.01918760
     atom   15 type  1   force =     0.00002335    0.00038370   -0.00013166
     atom   16 type  1   force =     0.00026809    0.00046374   -0.00030664
     atom   17 type  1   force =    -0.00006413   -0.00005408    0.02988140
     atom   18 type  1   force =    -0.00232770   -0.00140718   -0.01669741
     atom   19 type  1   force =     0.00001073    0.00024307   -0.00070699
     atom   20 type  1   force =     0.00039045    0.00028405   -0.00030735
     atom   21 type  1   force =     0.00071692   -0.00122789    0.01910452
     atom   22 type  1   force =    -0.00209565   -0.00192563   -0.01678435
     atom   23 type  1   force =     0.00034085   -0.00022474   -0.00008088
     atom   24 type  1   force =     0.00017101   -0.00074820    0.00038290
     atom   25 type  1   force =    -0.00065599   -0.00051024    0.01890637
     atom   26 type  1   force =    -0.00187841    0.00029618   -0.02162264
     atom   27 type  1   force =     0.00054830    0.00002597    0.00001164
     atom   28 type  1   force =     0.00023770    0.00000259   -0.00006110
     atom   29 type  1   force =    -0.00074695   -0.00043264    0.01893355
     atom   30 type  1   force =     0.00211332    0.00143186   -0.02531592
     atom   31 type  1   force =    -0.00008115    0.00060660    0.00007892
     atom   32 type  1   force =     0.00014412    0.00012227    0.00009276
     atom   33 type  1   force =    -0.00093638   -0.00070987    0.01722665
     atom   34 type  1   force =    -0.00037490   -0.00190787   -0.02162766
     atom   35 type  1   force =     0.00048015    0.00020438   -0.00032558
     atom   36 type  1   force =     0.00012141    0.00017566   -0.00004967
     atom   37 type  2   force =     0.00001715    0.00121803    0.00001048

     Total force =     0.085149     Total SCF correction =     0.002612
 !ASE

     Writing output data file calc.save

     General routines

     Parallel routines

   This run was terminated on:  13:59: 8   6Mar2018

   JOB DONE.