     Program PWSCF v.5.1rc2 (svn rev. ) starts on 20Apr2017 at 21:10:48

     Current dimensions of program PWSCF are:
     Max number of different atomic species (ntypx) = 10
     Max number of k-points (npk) =  40000
     Max angular momentum in pseudopotentials (lmaxx) =  3
     Presently no symmetry can be used with electric field

     IMPORTANT: XC functional enforced from input :
     Exchange-correlation      = RPBE ( 1  4 28  4 0)
     Any further DFT definition will be discarded
     Please, verify this is what you really want

               file Ni.UPF: wavefunction(s)  3D renormalized

     Subspace diagonalization in iterative solution of the eigenvalue problem:
     a serial algorithm will be used

     Generating pointlists ...
     new r_m :   0.4125 (alat units)  0.7795 (a.u.) for type    1
     new r_m :   0.4125 (alat units)  0.7795 (a.u.) for type    2
     new r_m :   0.4125 (alat units)  0.7795 (a.u.) for type    3

     bravais-lattice index     =            0
     lattice parameter (alat)  =       1.8897  a.u.
     unit-cell volume          =    7046.4111 (a.u.)^3
     number of atoms/cell      =           45
     number of atomic types    =            3
     number of electrons       =       412.00
     number of Kohn-Sham states=          306
     kinetic-energy cutoff     =      44.0992  Ry
     charge density cutoff     =     440.9919  Ry
     convergence threshold     =      7.3E-07
     mixing beta               =       0.1000
     number of iterations used =           10  plain     mixing
     Exchange-correlation      = RPBE ( 1  4 28  4 0)
     nstep                     =           50

     celldm(1)=   1.889726  celldm(2)=   0.000000  celldm(3)=   0.000000
     celldm(4)=   0.000000  celldm(5)=   0.000000  celldm(6)=   0.000000

     crystal axes: (cart. coord. in units of alat)
               a(1) = (   7.548011   0.000000   0.000000 )
               a(2) = (  -3.774005   6.536769   0.000000 )
               a(3) = (   0.000000   0.000000  21.162925 )

     reciprocal axes: (cart. coord. in units 2 pi/alat)
               b(1) = (  0.132485  0.076490  0.000000 )
               b(2) = (  0.000000  0.152981  0.000000 )
               b(3) = (  0.000000  0.000000  0.047252 )

     PseudoPot. # 1 for Ni read from file:
     /home/alatimer/bin/psp/esp_psp_w_gbrvRu/Ni.UPF
     MD5 check sum: 8b2449ee0060d9c33484ccd47bb60870
     Pseudo is Ultrasoft + core correction, Zval = 10.0
     Generated using "atomic" code by A. Dal Corso  v.5.0.2 svn rev. 9415
     Using radial grid of 1195 points,  6 beta functions with:
                l(1) =   0
                l(2) =   0
                l(3) =   1
                l(4) =   1
                l(5) =   2
                l(6) =   2
     Q(r) pseudized with 0 coefficients

     PseudoPot. # 2 for  O read from file:
     /home/alatimer/bin/psp/esp_psp_w_gbrvRu/O.UPF
     MD5 check sum: e057bbcf3229fb5d8c36c0c92f9568b4
     Pseudo is Ultrasoft + core correction, Zval =  6.0
     Generated using "atomic" code by A. Dal Corso  v.5.0.2 svn rev. 9415
     Using radial grid of 1095 points,  4 beta functions with:
                l(1) =   0
                l(2) =   0
                l(3) =   1
                l(4) =   1
     Q(r) pseudized with 0 coefficients

     PseudoPot. # 3 for  C read from file:
     /home/alatimer/bin/psp/esp_psp_w_gbrvRu/C.UPF
     MD5 check sum: ab446d787031eba755f1d5ee46644bb0
     Pseudo is Ultrasoft + core correction, Zval =  4.0
     Generated using "atomic" code by A. Dal Corso  v.5.0.2 svn rev. 9415
     Using radial grid of 1073 points,  4 beta functions with:
                l(1) =   0
                l(2) =   0
                l(3) =   1
                l(4) =   1
     Q(r) pseudized with 0 coefficients

     atomic species   valence    mass     pseudopotential
        Ni1           10.00    58.69340     Ni( 1.00)
        O1             6.00    15.99940      O( 1.00)
        C1             4.00    12.01100      C( 1.00)

     Starting magnetic structure
     atomic species   magnetization
        Ni1          0.300
        O1           0.500
        C1           0.750

     No symmetry found

   Cartesian axes

     site n.     atom                  positions (alat units)
         1           Ni1 tau(   1) = (   0.0000000   0.0000000   7.5000000  )
         2           Ni1 tau(   2) = (   1.2580018   0.7263077   9.5543084  )
         3           Ni1 tau(   3) = (   0.0000000   1.4526154  11.6086168  )
         4           Ni1 tau(   4) = (   1.2580018   2.1789231  13.6629252  )
         5           Ni1 tau(   5) = (  -1.2580018   2.1789231   7.5000000  )
         6           Ni1 tau(   6) = (   0.0000000   2.9052308   9.5543084  )
         7           Ni1 tau(   7) = (  -1.2580018   3.6315385  11.6086168  )
         8           Ni1 tau(   8) = (  -0.0000000   4.3578462  13.6629252  )
         9           Ni1 tau(   9) = (  -2.5160037   4.3578462   7.5000000  )
        10           Ni1 tau(  10) = (  -1.2580018   5.0841539   9.5543084  )
        11           Ni1 tau(  11) = (  -2.5160037   5.8104616  11.6086168  )
        12           Ni1 tau(  12) = (  -1.2580018   6.5367693  13.6629252  )
        13           Ni1 tau(  13) = (   2.5160037   0.0000000   7.5000000  )
        14           Ni1 tau(  14) = (   3.7740055   0.7263077   9.5543084  )
        15           Ni1 tau(  15) = (   2.5160037   1.4526154  11.6086168  )
        16           Ni1 tau(  16) = (   3.7740055   2.1789231  13.6629252  )
        17           Ni1 tau(  17) = (   1.2580018   2.1789231   7.5000000  )
        18           Ni1 tau(  18) = (   2.5160037   2.9052308   9.5543084  )
        19           Ni1 tau(  19) = (   1.2580018   3.6315385  11.6086168  )
        20           Ni1 tau(  20) = (   2.5160037   4.3578462  13.6629252  )
        21           Ni1 tau(  21) = (  -0.0000000   4.3578462   7.5000000  )
        22           Ni1 tau(  22) = (   1.2580018   5.0841539   9.5543084  )
        23           Ni1 tau(  23) = (  -0.0000000   5.8104616  11.6086168  )
        24           Ni1 tau(  24) = (   1.2580018   6.5367693  13.6629252  )
        25           Ni1 tau(  25) = (   5.0320073   0.0000000   7.5000000  )
        26           Ni1 tau(  26) = (   6.2900092   0.7263077   9.5543084  )
        27           Ni1 tau(  27) = (   5.0320073   1.4526154  11.6086168  )
        28           Ni1 tau(  28) = (   6.2900092   2.1789231  13.6629252  )
        29           Ni1 tau(  29) = (   3.7740055   2.1789231   7.5000000  )
        30           Ni1 tau(  30) = (   5.0320073   2.9052308   9.5543084  )
        31           Ni1 tau(  31) = (   3.7740055   3.6315385  11.6086168  )
        32           Ni1 tau(  32) = (   5.0320073   4.3578462  13.6629252  )
        33           Ni1 tau(  33) = (   2.5160037   4.3578462   7.5000000  )
        34           Ni1 tau(  34) = (   3.7740055   5.0841539   9.5543084  )
        35           Ni1 tau(  35) = (   2.5160037   5.8104616  11.6086168  )
        36           Ni1 tau(  36) = (   3.7740055   6.5367693  13.6629252  )
        37           O1  tau(  37) = (   2.4935804   5.7277866  14.8463543  )
        38           O1  tau(  38) = (   0.0203265   5.7554212  14.8463543  )
        39           O1  tau(  39) = (   2.4363302   1.3975750  14.8463543  )
        40           O1  tau(  40) = (   4.9523338   1.3975750  14.8463543  )
        41           O1  tau(  41) = (  -0.0796735   1.3975750  14.8463543  )
        42           O1  tau(  42) = (  -2.5956772   5.7554212  14.8463543  )
        43           O1  tau(  43) = (   3.6943320   3.5764981  14.8463543  )
        44           O1  tau(  44) = (  -1.3376753   3.5764981  14.8463543  )
        45           C1  tau(  45) = (   1.2580018   3.5789231  14.9629252  )

     number of k points=    10  Fermi-Dirac smearing, width (Ry)=  0.0073
                       cart. coord. in units 2pi/alat
        k(    1) = (   0.0000000   0.0000000   0.0000000), wk =   0.1111111
        k(    2) = (   0.0000000   0.0509936   0.0000000), wk =   0.2222222
        k(    3) = (   0.0441617   0.0254968   0.0000000), wk =   0.2222222
        k(    4) = (   0.0441617   0.0764904   0.0000000), wk =   0.2222222
        k(    5) = (   0.0441617  -0.0254968   0.0000000), wk =   0.2222222
        k(    6) = (   0.0000000   0.0000000   0.0000000), wk =   0.1111111
        k(    7) = (   0.0000000   0.0509936   0.0000000), wk =   0.2222222
        k(    8) = (   0.0441617   0.0254968   0.0000000), wk =   0.2222222
        k(    9) = (   0.0441617   0.0764904   0.0000000), wk =   0.2222222
        k(   10) = (   0.0441617  -0.0254968   0.0000000), wk =   0.2222222

     Largest allocated arrays     est. size (Mb)     dimensions
     Largest temporary arrays     est. size (Mb)     dimensions

     Check: negative/imaginary core charge=   -0.000010    0.000000

     Initial potential from superposition of free atoms
     Check: negative starting charge=(component1):   -0.000453
     Check: negative starting charge=(component2):   -0.000216

     starting charge  411.99091, renormalised to  412.00000

     negative rho (up, down):  4.534E-04 2.161E-04

     Adding external electric field

     Computed dipole along edir(3) :
        Dipole               -0.0088 Ry au,         -0.0224 Debye
        Dipole field         -0.0000 Ry au

        Potential amp.        0.0012 Ry
        Total length         38.9923 bohr

[...]

     Starting wfc are  360 randomized atomic wfcs

     Self-consistent Calculation

     iteration #  1     ecut=    44.10 Ry     beta=0.10
     Davidson diagonalization with overlap
     ethr =  1.00E-02,  avg # of iterations =  6.8

[...]

     Magnetic moment per site:
     atom:    1    charge:    3.9499    magn:    1.1253    constr:    0.0000
     atom:    2    charge:    3.9698    magn:    1.1094    constr:    0.0000
     atom:    3    charge:    3.9719    magn:    1.1078    constr:    0.0000
     atom:    4    charge:    3.9390    magn:    1.1311    constr:    0.0000
     atom:    5    charge:    3.9495    magn:    1.1255    constr:    0.0000
     atom:    6    charge:    3.9698    magn:    1.1094    constr:    0.0000
     atom:    7    charge:    3.9718    magn:    1.1080    constr:    0.0000
     atom:    8    charge:    3.9388    magn:    1.1334    constr:    0.0000
     atom:    9    charge:    3.9498    magn:    1.1253    constr:    0.0000
     atom:   10    charge:    3.9698    magn:    1.1095    constr:    0.0000
     atom:   11    charge:    3.9709    magn:    1.1084    constr:    0.0000
     atom:   12    charge:    3.9352    magn:    1.1534    constr:    0.0000
     atom:   13    charge:    3.9499    magn:    1.1253    constr:    0.0000
     atom:   14    charge:    3.9695    magn:    1.1097    constr:    0.0000
     atom:   15    charge:    3.9717    magn:    1.1080    constr:    0.0000
     atom:   16    charge:    3.9374    magn:    1.1536    constr:    0.0000
     atom:   17    charge:    3.9495    magn:    1.1254    constr:    0.0000
     atom:   18    charge:    3.9697    magn:    1.1096    constr:    0.0000
     atom:   19    charge:    3.9716    magn:    1.1075    constr:    0.0000
[...]
     ewald contribution        =   10811.63982689 Ry
     electric field correction =       0.00236332 Ry
     smearing contrib. (-TS)   =      -0.16741505 Ry

[...]

     convergence has been achieved in  81 iterations

     Forces acting on atoms (Ry/au):

     negative rho (up, down):  3.700E-04 3.163E-04
     atom    1 type  1   force =     0.00007116   -0.00015461    0.00454296
     atom    2 type  1   force =     0.00009734   -0.00007302   -0.00376335
     atom    3 type  1   force =    -0.00090062    0.00064914   -0.01909308
     atom    4 type  1   force =    -0.02132290    0.01303191    0.06200759
     atom    5 type  1   force =     0.00012870    0.00008154    0.00450501
     atom    6 type  1   force =     0.00021822    0.00014984   -0.00393903
     atom    7 type  1   force =     0.00056634   -0.00096359   -0.01843349
     atom    8 type  1   force =     0.00600963   -0.03302477    0.06644654
     atom    9 type  1   force =    -0.00005156    0.00004660    0.00457761
     atom   10 type  1   force =     0.00002582    0.00005033   -0.00378032
     atom   11 type  1   force =    -0.00013479   -0.00015100   -0.01804782
     atom   12 type  1   force =    -0.01389286   -0.02480839    0.04808848
     atom   13 type  1   force =     0.00010082   -0.00001599    0.00439973
     atom   14 type  1   force =     0.00018425    0.00004042   -0.00394955
     atom   15 type  1   force =     0.00073125    0.00064805   -0.01970058
     atom   16 type  1   force =    -0.02017113   -0.01384548    0.04894553
     atom   17 type  1   force =     0.00015341    0.00011896    0.00421903
     atom   18 type  1   force =    -0.00008844    0.00012452   -0.00399088
     atom   19 type  1   force =    -0.00048955   -0.00043874   -0.02097658
     atom   20 type  1   force =    -0.02664323   -0.02951654    0.04674975
     atom   21 type  1   force =     0.00014473   -0.00000625    0.00424496
     atom   22 type  1   force =     0.00004906   -0.00022138   -0.00407492
     atom   23 type  1   force =     0.00060569    0.00009904   -0.01949848
     atom   24 type  1   force =    -0.00330961   -0.01742591    0.05447995
     atom   25 type  1   force =    -0.00012282   -0.00018538    0.00449661
     atom   26 type  1   force =    -0.00029984   -0.00005580   -0.00420147
     atom   27 type  1   force =     0.00004292   -0.00008626   -0.01892974
     atom   28 type  1   force =    -0.01341519   -0.00975462    0.04963972
     atom   29 type  1   force =    -0.00020975   -0.00001624    0.00445663
     atom   30 type  1   force =    -0.00009657   -0.00025890   -0.00417224
     atom   31 type  1   force =    -0.00039927   -0.00092114   -0.01919492
     atom   32 type  1   force =    -0.01206846   -0.00335213    0.04105842
     atom   33 type  1   force =    -0.00004847   -0.00009975    0.00440525
     atom   34 type  1   force =    -0.00007286   -0.00009642   -0.00390625
     atom   35 type  1   force =    -0.00098425    0.00008476   -0.01933220
     atom   36 type  1   force =    -0.00333310   -0.01505780    0.03940957
     atom   37 type  2   force =    -0.00711032    0.02155094   -0.02524855
     atom   38 type  2   force =    -0.00498240    0.00900722   -0.02916456
     atom   39 type  2   force =     0.01859836    0.01882649   -0.02259808
     atom   40 type  2   force =     0.01857786    0.01269894   -0.03476648
     atom   41 type  2   force =     0.02354785    0.02681018   -0.02945905
     atom   42 type  2   force =     0.02459434    0.01378714   -0.03690397
     atom   43 type  2   force =     0.00520555    0.00847027   -0.02481681
     atom   44 type  2   force =     0.03570672    0.01592825   -0.03149953
     atom   45 type  3   force =    -0.00521200    0.00832556   -0.05323140

     Total force =     0.220709     Total SCF correction =     0.003014
 !ASE

     Writing output data file calc.save
     Check: negative starting charge=(component1):   -0.000665
     NEW-OLD atomic charge density approx. for the potential

     Check: negative/imaginary core charge=   -0.000009    0.000000
     Check: negative starting charge=(component1):   -0.000635

[...]

     iteration #  1     ecut=    44.10 Ry     beta=0.10
     Davidson diagonalization with overlap
     c_bands:  1 eigenvalues not converged
     c_bands:  1 eigenvalues not converged
     ethr =  1.84E-10,  avg # of iterations = 17.2

[...]

     iteration # 14     ecut=    44.10 Ry     beta=0.10
     Davidson diagonalization with overlap
     c_bands:  1 eigenvalues not converged
     c_bands:  1 eigenvalues not converged
     ethr =  1.56E-06,  avg # of iterations =  5.6

[...]

     Total force =     0.019872     Total SCF correction =     0.002697
     SCF correction compared to forces is large: reduce conv_thr to get better values
 !ASE

     Writing output data file calc.save
     Check: negative starting charge=(component1):   -0.000630
     NEW-OLD atomic charge density approx. for the potential

     Check: negative/imaginary core charge=   -0.000009    0.000000
     Check: negative starting charge=(component1):   -0.000629

[...]

     Self-consistent Calculation

[...]

     total energy              =   -3903.66477230 Ry
     Harris-Foulkes estimate   =   -3903.66477280 Ry
     estimated scf accuracy    <       0.00000209 Ry

[...]

     iteration # 15     ecut=    44.10 Ry     beta=0.10
     Davidson diagonalization with overlap
     ethr =  2.29E-10,  avg # of iterations =  1.0

     negative rho (up, down):  3.436E-04 3.060E-04

[...]

     Adding external electric field

     Computed dipole along edir(3) :
        Dipole               -1.0034 Ry au,         -2.5504 Debye
        Dipole field         -0.0018 Ry au

        Potential amp.        0.1395 Ry
        Total length         38.9923 bohr

     Magnetic moment per site:
     atom:    1    charge:    3.9715    magn:    0.3820    constr:    0.0000
     atom:    2    charge:    3.9687    magn:    0.3783    constr:    0.0000
     atom:    3    charge:    3.9685    magn:    0.3316    constr:    0.0000
     atom:    4    charge:    3.5407    magn:    0.0189    constr:    0.0000
     atom:    5    charge:    3.9714    magn:    0.3831    constr:    0.0000
     atom:    6    charge:    3.9688    magn:    0.3775    constr:    0.0000
     atom:    7    charge:    3.9683    magn:    0.3315    constr:    0.0000
     atom:    8    charge:    3.5171    magn:    0.0187    constr:    0.0000
     atom:    9    charge:    3.9715    magn:    0.3819    constr:    0.0000
     atom:   10    charge:    3.9687    magn:    0.3782    constr:    0.0000
     atom:   11    charge:    3.9598    magn:    0.3375    constr:    0.0000
     atom:   12    charge:    3.8886    magn:    0.0838    constr:    0.0000
     atom:   13    charge:    3.9715    magn:    0.3819    constr:    0.0000
     atom:   14    charge:    3.9688    magn:    0.3842    constr:    0.0000
     atom:   15    charge:    3.9679    magn:    0.3314    constr:    0.0000
     atom:   16    charge:    3.7747    magn:    0.0569    constr:    0.0000
     atom:   17    charge:    3.9714    magn:    0.3811    constr:    0.0000
     atom:   18    charge:    3.9688    magn:    0.3773    constr:    0.0000
     atom:   19    charge:    3.9698    magn:    0.3279    constr:    0.0000
     atom:   20    charge:    3.4774    magn:    0.0183    constr:    0.0000
     atom:   21    charge:    3.9714    magn:    0.3811    constr:    0.0000
     atom:   22    charge:    3.9688    magn:    0.3773    constr:    0.0000
     atom:   23    charge:    3.9671    magn:    0.3314    constr:    0.0000
     atom:   24    charge:    3.7611    magn:    0.0567    constr:    0.0000
     atom:   25    charge:    3.9714    magn:    0.3831    constr:    0.0000
     atom:   26    charge:    3.9688    magn:    0.3843    constr:    0.0000
     atom:   27    charge:    3.9695    magn:    0.3303    constr:    0.0000
     atom:   28    charge:    3.8022    magn:    0.0574    constr:    0.0000
     atom:   29    charge:    3.9714    magn:    0.3832    constr:    0.0000
     atom:   30    charge:    3.9688    magn:    0.3844    constr:    0.0000
     atom:   31    charge:    3.9668    magn:    0.3315    constr:    0.0000
     atom:   32    charge:    3.8853    magn:    0.0827    constr:    0.0000
     atom:   33    charge:    3.9714    magn:    0.3811    constr:    0.0000
     atom:   34    charge:    3.9688    magn:    0.3781    constr:    0.0000
     atom:   35    charge:    3.9661    magn:    0.3316    constr:    0.0000
     atom:   36    charge:    3.8851    magn:    0.0829    constr:    0.0000
     atom:   37    charge:    1.9921    magn:    0.0188    constr:    0.0000
     atom:   38    charge:    2.0038    magn:    0.0192    constr:    0.0000
     atom:   39    charge:    1.9904    magn:    0.0192    constr:    0.0000
     atom:   40    charge:    2.0101    magn:    0.0146    constr:    0.0000
     atom:   41    charge:    1.9995    magn:    0.0193    constr:    0.0000
     atom:   42    charge:    2.0041    magn:    0.0160    constr:    0.0000
     atom:   43    charge:    1.9862    magn:    0.0188    constr:    0.0000
     atom:   44    charge:    1.9992    magn:    0.0192    constr:    0.0000
     atom:   45    charge:    0.5813    magn:   -0.0046    constr:    0.0000

     End of self-consistent calculation

 ------ SPIN UP ------------

[...]

 ------ SPIN DOWN ----------

[...]

          k = 0.0442-0.0255 0.0000 ( 34862 PWs)   bands (ev):

   -18.0100 -17.5939 -17.2240 -17.1429 -16.7914 -16.7437 -16.6913 -16.4816
    -9.0598  -5.6920  -5.1644  -4.8681  -4.8438  -4.7792  -4.7109  -4.6632
    -4.6089  -4.1885  -4.0903  -3.9687  -3.6684  -3.6671  -3.6145  -3.5424
    -3.1408  -3.1228  -3.0806  -3.0796  -3.0227  -2.9076  -2.8635  -2.7216
    -2.6673  -2.6613  -2.6467  -2.5703  -2.5344  -2.3696  -2.2039  -2.1242
    -1.9975  -1.9422  -1.9415  -1.8661  -1.7956  -1.7276  -1.6514  -1.6340
    -1.5911  -1.4320  -1.4092  -1.3313  -1.2679  -1.2602  -1.1112  -1.0137
    -1.0096  -0.9698  -0.9657  -0.9502  -0.9413  -0.9268  -0.8459  -0.8067
    -0.7490  -0.7436  -0.7311  -0.7192  -0.6948  -0.6449  -0.6357  -0.6144
    -0.5545  -0.5199  -0.4990  -0.4598  -0.4258  -0.4075  -0.3961  -0.3572
    -0.3468  -0.3302  -0.3205  -0.2540  -0.1839  -0.1699  -0.1608  -0.1249
    -0.0872  -0.0693  -0.0074  -0.0029   0.0028   0.0151   0.0236   0.0393
     0.0943   0.1190   0.1507   0.1988   0.2505   0.2532   0.2662   0.2806
     0.3165   0.3782   0.3833   0.4198   0.4482   0.5153   0.5244   0.5833
     0.6022   0.6142   0.6260   0.6275   0.6442   0.6596   0.6656   0.6773
     0.7102   0.7240   0.7465   0.7516   0.7628   0.7738   0.8005   0.8690
     0.8915   0.8959   0.9217   0.9343   0.9522   0.9591   0.9784   0.9838
     1.0297   1.0336   1.0519   1.0704   1.0770   1.0787   1.1113   1.1243
     1.2172   1.2230   1.2504   1.2555   1.2568   1.2880   1.3160   1.3730
     1.3900   1.3904   1.3927   1.4098   1.4182   1.4785   1.5551   1.5653
     1.5796   1.6426   1.6452   1.6576   1.6609   1.6777   1.7320   1.7491
     1.7934   1.8142   1.8239   1.8354   1.8420   1.8593   1.8660   1.8831
     1.8849   1.9145   1.9308   1.9877   2.0781   2.0877   2.0896   2.0944
     2.1073   2.1131   2.2064   2.2103   2.2149   2.2297   2.2764   2.2877
     2.3148   2.3422   2.3428   2.3728   2.3955   2.3993   2.4037   2.4118
     2.4307   2.4689   2.4777   2.5201   2.5228   2.5247   2.5442   2.5463
     2.5527   2.5644   2.5925   2.6115   2.6631   2.6704   2.6994   2.7212
     2.7370   2.7548   2.8225   2.8734   2.9219   2.9520   2.9939   3.1290
     3.1489   3.1953   3.4728   3.6011   3.6848   3.7406   3.7888   4.1518
     4.2081   4.6000   4.6210   4.8849   4.8883   5.1875   5.4602   5.5885
     5.6690   5.7461   5.7839   6.3892   6.4704   7.1736   7.3094   7.3346
     7.8100   8.2092   8.2437   8.3451   8.5344   8.5714   8.6779   8.7839
     8.9353   9.2637   9.2894   9.4890   9.5575   9.5763   9.5962   9.6056
     9.6676   9.9038   9.9190  10.3765  10.4218  10.4896  10.5176  10.5326
    10.5896  10.8467  10.8883  10.9395  11.0292  11.0688  11.1587  11.1673
    11.5837  11.6008  11.8281  11.8544  11.8959  11.9672  12.0242  12.3138
    12.3300  12.5076  12.5243  12.7031  12.8613  13.0215  13.0405  13.1943
    13.2409  13.2953  13.3216  13.3272  13.6972  13.7404  13.7542  13.7720
    13.7814  13.8068

     the Fermi energy is     2.3785 ev

!    total energy              =   -3903.66477238 Ry
     Harris-Foulkes estimate   =   -3903.66476663 Ry
     estimated scf accuracy    <       0.00000018 Ry

     The total energy is the sum of the following terms:

     one-electron contribution =  -26688.03456858 Ry
     hartree contribution      =   13767.60771314 Ry
     xc contribution           =   -1580.27456232 Ry
     ewald contribution        =   10597.20052607 Ry
     electric field correction =       0.00179553 Ry
     smearing contrib. (-TS)   =      -0.16567622 Ry

     total magnetization       =    17.09 Bohr mag/cell
     absolute magnetization    =    19.86 Bohr mag/cell

     convergence has been achieved in  15 iterations

     Forces acting on atoms (Ry/au):

     negative rho (up, down):  3.436E-04 3.060E-04
     atom    1 type  1   force =    -0.00007602    0.00002672    0.00415284
     atom    2 type  1   force =    -0.00031883    0.00051300   -0.00517858
     atom    3 type  1   force =     0.00017407    0.00018343   -0.00015495
     atom    4 type  1   force =     0.00069600   -0.00010290   -0.00032906
     atom    5 type  1   force =     0.00012781    0.00004349    0.00442774
     atom    6 type  1   force =     0.00081163    0.00030073   -0.00388778
     atom    7 type  1   force =     0.00024193    0.00029589   -0.00031429
     atom    8 type  1   force =    -0.00020736    0.00168319   -0.00005629
     atom    9 type  1   force =    -0.00001772   -0.00007254    0.00415985
     atom   10 type  1   force =     0.00045212   -0.00087767   -0.00515174
     atom   11 type  1   force =     0.00017963    0.00023484   -0.00026872
     atom   12 type  1   force =     0.00026012    0.00085945    0.00059130
     atom   13 type  1   force =     0.00001410    0.00000851    0.00417591
     atom   14 type  1   force =    -0.00029603   -0.00037296   -0.00395648
     atom   15 type  1   force =     0.00009602    0.00001649   -0.00030729
     atom   16 type  1   force =    -0.00016020    0.00039843   -0.00035087
     atom   17 type  1   force =    -0.00005382    0.00009857    0.00388408
     atom   18 type  1   force =    -0.00164523    0.00021175   -0.00391823
     atom   19 type  1   force =     0.00036246    0.00015967   -0.00020921
     atom   20 type  1   force =     0.00082951    0.00057190   -0.00079381
     atom   21 type  1   force =     0.00009550   -0.00011648    0.00388245
     atom   22 type  1   force =    -0.00054771   -0.00173616   -0.00397660
     atom   23 type  1   force =     0.00029851    0.00023887   -0.00044721
     atom   24 type  1   force =    -0.00022311   -0.00056595   -0.00078348
     atom   25 type  1   force =     0.00003313   -0.00016709    0.00439813
     atom   26 type  1   force =    -0.00044625   -0.00024715   -0.00419451
     atom   27 type  1   force =     0.00001171    0.00006129   -0.00017893
     atom   28 type  1   force =    -0.00067307   -0.00017081    0.00057576
     atom   29 type  1   force =    -0.00012051    0.00007862    0.00439693
     atom   30 type  1   force =    -0.00030239   -0.00050383   -0.00412310
     atom   31 type  1   force =     0.00008698    0.00001039   -0.00004321
     atom   32 type  1   force =     0.00070470    0.00037046   -0.00010833
     atom   33 type  1   force =    -0.00012614   -0.00007421    0.00381527
     atom   34 type  1   force =    -0.00113565   -0.00082008   -0.00539006
     atom   35 type  1   force =     0.00021671    0.00016670    0.00007728
     atom   36 type  1   force =     0.00049542    0.00034493   -0.00012550
     atom   37 type  2   force =     0.00004434    0.00021710    0.00075316
     atom   38 type  2   force =    -0.00023459   -0.00064360    0.00001497
     atom   39 type  2   force =    -0.00005005   -0.00076020    0.00028770
     atom   40 type  2   force =     0.00131975    0.00103601    0.00041932
     atom   41 type  2   force =    -0.00022487   -0.00023710    0.00091259
     atom   42 type  2   force =     0.00003141    0.00010638    0.00074522
     atom   43 type  2   force =     0.00014255   -0.00024627    0.00057502
     atom   44 type  2   force =    -0.00037384   -0.00018486    0.00083759
     atom   45 type  3   force =    -0.00049273   -0.00033693    0.00116511

     Total force =     0.019103     Total SCF correction =     0.001435
 !ASE

     Writing output data file calc.save

     General routines

     Parallel routines

   This run was terminated on:   7:40:55  21Apr2017

   JOB DONE.