     Program PWSCF v.5.1rc2 (svn rev. ) starts on 20Apr2018 at 13:26: 2

     Current dimensions of program PWSCF are:
     Max number of different atomic species (ntypx) = 10
     Max number of k-points (npk) =  40000
     Max angular momentum in pseudopotentials (lmaxx) =  3
     Presently no symmetry can be used with electric field

     IMPORTANT: XC functional enforced from input :
     Exchange-correlation      = RPBE ( 1  4 28  4 0)
     Any further DFT definition will be discarded
     Please, verify this is what you really want

     Subspace diagonalization in iterative solution of the eigenvalue problem:
     a serial algorithm will be used

     Generating pointlists ...
     new r_m :   0.4125 (alat units)  0.7795 (a.u.) for type    1
     new r_m :   0.4125 (alat units)  0.7795 (a.u.) for type    2

     bravais-lattice index     =            0
     lattice parameter (alat)  =       1.8897  a.u.
     unit-cell volume          =   12682.1321 (a.u.)^3
     number of atoms/cell      =           37
     number of atomic types    =            2
     number of electrons       =       328.00
     number of Kohn-Sham states=          264
     kinetic-energy cutoff     =      44.0992  Ry
     charge density cutoff     =     440.9919  Ry
     convergence threshold     =      7.3E-07
     mixing beta               =       0.1000
     number of iterations used =           10  plain     mixing
     Exchange-correlation      = RPBE ( 1  4 28  4 0)
     nstep                     =           50

     celldm(1)=   1.889726  celldm(2)=   0.000000  celldm(3)=   0.000000
     celldm(4)=   0.000000  celldm(5)=   0.000000  celldm(6)=   0.000000

     crystal axes: (cart. coord. in units of alat)
               a(1) = (   6.191574   0.000000   0.000000 )
               a(2) = (   0.000000   7.583099   0.000000 )
               a(3) = (   0.000000   0.000000  40.026524 )

     reciprocal axes: (cart. coord. in units 2 pi/alat)
               b(1) = (  0.161510  0.000000  0.000000 )
               b(2) = (  0.000000  0.131872  0.000000 )
               b(3) = (  0.000000  0.000000  0.024983 )

     PseudoPot. # 1 for Co read from file:
     /home/alatimer/bin/psp/esp_psp_w_gbrvRu/Co.UPF
     MD5 check sum: f36dda9fe147c5f42efc2a4f7ec0da3d
     Pseudo is Ultrasoft + core correction, Zval =  9.0
     Generated by new atomic code, or converted to UPF format
     Using radial grid of  937 points,  3 beta functions with:
                l(1) =   1
                l(2) =   2
                l(3) =   2
     Q(r) pseudized with  8 coefficients,  rinner =    1.000   1.000   1.000
                                                       1.000   1.000

     PseudoPot. # 2 for  C read from file:
     /home/alatimer/bin/psp/esp_psp_w_gbrvRu/C.UPF
     MD5 check sum: ab446d787031eba755f1d5ee46644bb0
     Pseudo is Ultrasoft + core correction, Zval =  4.0
     Generated using "atomic" code by A. Dal Corso  v.5.0.2 svn rev. 9415
     Using radial grid of 1073 points,  4 beta functions with:
                l(1) =   0
                l(2) =   0
                l(3) =   1
                l(4) =   1
     Q(r) pseudized with 0 coefficients

     atomic species   valence    mass     pseudopotential
        Co1            9.00    58.93320     Co( 1.00)
        C1             4.00    12.01100      C( 1.00)

     Starting magnetic structure
     atomic species   magnetization
        Co1          0.444
        C1           1.000

     No symmetry found

   Cartesian axes

     site n.     atom                  positions (alat units)
         1           Co1 tau(   1) = (   4.1277161   1.2638498  24.0265242  )
         2           Co1 tau(   2) = (   4.1277161   3.7915494  24.0265242  )
         3           Co1 tau(   3) = (   4.1277161   6.3192490  24.0265242  )
         4           Co1 tau(   4) = (   2.0638581   0.0000000  23.2968402  )
         5           Co1 tau(   5) = (   2.0638581   2.5276996  23.2968402  )
         6           Co1 tau(   6) = (   2.0638581   5.0553992  23.2968402  )
         7           Co1 tau(   7) = (   0.0000000   1.2638498  22.5671562  )
         8           Co1 tau(   8) = (   0.0000000   3.7915494  22.5671562  )
         9           Co1 tau(   9) = (   0.0000000   6.3192490  22.5671562  )
        10           Co1 tau(  10) = (   4.1277161   0.0000000  21.8374721  )
        11           Co1 tau(  11) = (   4.1277161   2.5276996  21.8374721  )
        12           Co1 tau(  12) = (   4.1277161   5.0553992  21.8374721  )
        13           Co1 tau(  13) = (   2.0638581   1.2638498  21.1077881  )
        14           Co1 tau(  14) = (   2.0638581   3.7915494  21.1077881  )
        15           Co1 tau(  15) = (   2.0638581   6.3192490  21.1077881  )
        16           Co1 tau(  16) = (   0.0000000   0.0000000  20.3781041  )
        17           Co1 tau(  17) = (   0.0000000   2.5276996  20.3781041  )
        18           Co1 tau(  18) = (   0.0000000   5.0553992  20.3781041  )
        19           Co1 tau(  19) = (   4.1277161   1.2638498  19.6484201  )
        20           Co1 tau(  20) = (   4.1277161   3.7915494  19.6484201  )
        21           Co1 tau(  21) = (   4.1277161   6.3192490  19.6484201  )
        22           Co1 tau(  22) = (   2.0638581   0.0000000  18.9187361  )
        23           Co1 tau(  23) = (   2.0638581   2.5276996  18.9187361  )
        24           Co1 tau(  24) = (   2.0638581   5.0553992  18.9187361  )
        25           Co1 tau(  25) = (   0.0000000   1.2638498  18.1890521  )
        26           Co1 tau(  26) = (   0.0000000   3.7915494  18.1890521  )
        27           Co1 tau(  27) = (   0.0000000   6.3192490  18.1890521  )
        28           Co1 tau(  28) = (   4.1277161   0.0000000  17.4593680  )
        29           Co1 tau(  29) = (   4.1277161   2.5276996  17.4593680  )
        30           Co1 tau(  30) = (   4.1277161   5.0553992  17.4593680  )
        31           Co1 tau(  31) = (   2.0638581   1.2638498  16.7296840  )
        32           Co1 tau(  32) = (   2.0638581   3.7915494  16.7296840  )
        33           Co1 tau(  33) = (   2.0638581   6.3192490  16.7296840  )
        34           Co1 tau(  34) = (   0.0000000   0.0000000  16.0000000  )
        35           Co1 tau(  35) = (   0.0000000   2.5276996  16.0000000  )
        36           Co1 tau(  36) = (   0.0000000   5.0553992  16.0000000  )
        37           C1  tau(  37) = (   2.0638581   0.0000000  25.0968402  )

     number of k points=    10  Fermi-Dirac smearing, width (Ry)=  0.0073
                       cart. coord. in units 2pi/alat
        k(    1) = (   0.0000000   0.0000000   0.0000000), wk =   0.1111111
        k(    2) = (   0.0000000   0.0439574   0.0000000), wk =   0.2222222
        k(    3) = (   0.0538366   0.0000000   0.0000000), wk =   0.2222222
        k(    4) = (   0.0538366   0.0439574   0.0000000), wk =   0.2222222
        k(    5) = (   0.0538366  -0.0439574   0.0000000), wk =   0.2222222
        k(    6) = (   0.0000000   0.0000000   0.0000000), wk =   0.1111111
        k(    7) = (   0.0000000   0.0439574   0.0000000), wk =   0.2222222
        k(    8) = (   0.0538366   0.0000000   0.0000000), wk =   0.2222222
        k(    9) = (   0.0538366   0.0439574   0.0000000), wk =   0.2222222
        k(   10) = (   0.0538366  -0.0439574   0.0000000), wk =   0.2222222

     Largest allocated arrays     est. size (Mb)     dimensions
     Largest temporary arrays     est. size (Mb)     dimensions

     Initial potential from superposition of free atoms
     Check: negative starting charge=(component1):   -0.004244
     Check: negative starting charge=(component2):   -0.001664

     starting charge  327.99028, renormalised to  328.00000

     negative rho (up, down):  4.244E-03 1.664E-03

     Adding external electric field

     Computed dipole along edir(3) :
        Dipole               -0.0007 Ry au,         -0.0019 Debye
        Dipole field         -0.0000 Ry au

        Potential amp.        0.0001 Ry
        Total length         73.7482 bohr

[...]

     Starting wfc are  328 randomized atomic wfcs

     Self-consistent Calculation

     iteration #  1     ecut=    44.10 Ry     beta=0.10
     Davidson diagonalization with overlap
     ethr =  1.00E-02,  avg # of iterations =  7.7

[...]

     Magnetic moment per site:
     atom:    1    charge:    3.1729    magn:    1.4258    constr:    0.0000
     atom:    2    charge:    3.1744    magn:    1.4239    constr:    0.0000
     atom:    3    charge:    3.1729    magn:    1.4258    constr:    0.0000
     atom:    4    charge:    3.2281    magn:    1.3635    constr:    0.0000
     atom:    5    charge:    3.2019    magn:    1.3979    constr:    0.0000
     atom:    6    charge:    3.2019    magn:    1.3979    constr:    0.0000
     atom:    7    charge:    3.2151    magn:    1.3837    constr:    0.0000
     atom:    8    charge:    3.2154    magn:    1.3833    constr:    0.0000
     atom:    9    charge:    3.2151    magn:    1.3837    constr:    0.0000
     atom:   10    charge:    3.2299    magn:    1.3692    constr:    0.0000
     atom:   11    charge:    3.2295    magn:    1.3691    constr:    0.0000
     atom:   12    charge:    3.2294    magn:    1.3691    constr:    0.0000
     atom:   13    charge:    3.2301    magn:    1.3693    constr:    0.0000
     atom:   14    charge:    3.2299    magn:    1.3696    constr:    0.0000
     atom:   15    charge:    3.2301    magn:    1.3692    constr:    0.0000
     atom:   16    charge:    3.2295    magn:    1.3697    constr:    0.0000
     atom:   17    charge:    3.2303    magn:    1.3692    constr:    0.0000
     atom:   18    charge:    3.2303    magn:    1.3692    constr:    0.0000
     atom:   19    charge:    3.2297    magn:    1.3693    constr:    0.0000
     atom:   20    charge:    3.2293    magn:    1.3692    constr:    0.0000
     atom:   21    charge:    3.2297    magn:    1.3693    constr:    0.0000
     atom:   22    charge:    3.2303    magn:    1.3698    constr:    0.0000
     atom:   23    charge:    3.2299    magn:    1.3698    constr:    0.0000
     atom:   24    charge:    3.2298    magn:    1.3697    constr:    0.0000
     atom:   25    charge:    3.2298    magn:    1.3689    constr:    0.0000
     atom:   26    charge:    3.2299    magn:    1.3690    constr:    0.0000
     atom:   27    charge:    3.2298    magn:    1.3689    constr:    0.0000
     atom:   28    charge:    3.2155    magn:    1.3823    constr:    0.0000
     atom:   29    charge:    3.2153    magn:    1.3823    constr:    0.0000
     atom:   30    charge:    3.2153    magn:    1.3823    constr:    0.0000
     atom:   31    charge:    3.2023    magn:    1.3963    constr:    0.0000
     atom:   32    charge:    3.2022    magn:    1.3961    constr:    0.0000
     atom:   33    charge:    3.2023    magn:    1.3963    constr:    0.0000
     atom:   34    charge:    3.1740    magn:    1.4240    constr:    0.0000
     atom:   35    charge:    3.1740    magn:    1.4240    constr:    0.0000
     atom:   36    charge:    3.1740    magn:    1.4240    constr:    0.0000
     atom:   37    charge:    0.5618    magn:    0.5329    constr:    0.0000

[...]
    -4.4383  -4.3709  -4.3359  -4.3269  -4.3255  -4.2035  -4.2030  -4.1572
    -4.0803  -4.0467  -4.0453  -4.0353  -4.0099  -3.9522  -3.9093  -3.9045
    -3.8797  -3.8744  -3.8686  -3.8275  -3.8183  -3.7878  -3.7668  -3.7530
    -3.7498  -3.7209  -3.6707  -3.6454  -3.6434  -3.6245  -3.5922  -3.5750
    -3.5596  -3.5581  -3.4901  -3.4883  -3.4576  -3.4395  -3.4251  -3.3868
    -3.3735  -3.3690  -3.3491  -3.3356  -3.3295  -3.3263  -3.3126  -3.3063
    -3.2748  -3.2471  -3.2370  -3.2091  -3.1933  -3.1631  -3.1553  -3.1390
    -3.1380  -3.1380  -3.1183  -3.0898  -3.0841  -3.0767  -3.0746  -3.0571
    -3.0396  -3.0082  -2.9972  -2.9742  -2.9445  -2.9385  -2.9264  -2.8666
    -2.8620  -2.8568  -2.8383  -2.8155  -2.8041  -2.7740  -2.7731  -2.7257
    -2.7192  -2.7137  -2.6634  -2.6510  -2.6412  -2.5831  -2.5774  -2.5685
    -2.5487  -2.5466  -2.5193  -2.5135  -2.4639  -2.4441  -2.3848  -2.3657
    -2.3545  -2.3037  -2.2878  -2.2878  -2.2578  -2.2495  -2.2481  -2.2321
    -2.2288  -2.2119  -2.1970  -2.1677  -2.1546  -2.1463  -2.1287  -2.1223
    -2.0936  -2.0818  -2.0810  -2.0456  -2.0395  -2.0363  -2.0254  -2.0052
    -1.9868  -1.9831  -1.9805  -1.9309  -1.9075  -1.9038  -1.8578  -1.8347
    -1.7969  -1.7891  -1.7736  -1.7701  -1.7624  -1.7292  -1.7201  -1.7092
    -1.7068  -1.7064  -1.6966  -1.6770  -1.6628  -1.6453  -1.6297  -1.6078
    -1.5967  -1.5861  -1.5824  -1.5591  -1.4738  -1.4462  -1.3904  -1.0260
    -0.9467  -0.9188  -0.8962  -0.1738   0.0067   0.0903   0.2540   0.3512
     0.3630   0.4547   0.4826   0.5292   0.6769   1.0140   1.1484   1.1814
     1.2993   1.3363   1.4925   1.6701   2.0357   2.2961   2.5187   2.5427
     2.7425   2.7880   3.1449   3.2504   3.2614   3.5575   3.6374   3.7400
     3.9723   4.0141   4.2370   4.3122   4.6225   4.6958   4.8232   4.8563
     4.9519   5.1103   5.1670   5.4144   5.7218   5.7831   5.8657   5.8793
     6.0807   6.0984   6.1410   6.2377   6.2585   6.2931   6.3673   6.5082
     6.5687   6.6201   6.7133   6.7580   6.7896   6.8548   7.0164   7.1394
     7.2039   7.2672   7.3000   7.3059   7.3426   7.3433   7.4461   7.4825

[...]

 ------ SPIN DOWN ----------

[...]

     the Fermi energy is    -0.6562 ev

!    total energy              =   -2896.90479879 Ry
     Harris-Foulkes estimate   =   -2896.90479867 Ry
     estimated scf accuracy    <       0.00000063 Ry

     The total energy is the sum of the following terms:

     one-electron contribution =  -61427.20432589 Ry
     hartree contribution      =   31011.46576664 Ry
     xc contribution           =   -1330.98172202 Ry
     ewald contribution        =   28849.92783714 Ry
     electric field correction =       0.00005661 Ry
     smearing contrib. (-TS)   =      -0.11241126 Ry

[...]

     convergence has been achieved in  72 iterations

     Forces acting on atoms (Ry/au):

     negative rho (up, down):  5.330E-03 1.808E-02
     atom    1 type  1   force =    -0.01182605    0.00152124   -0.01480255
     atom    2 type  1   force =    -0.00057110   -0.00000050   -0.02861311
     atom    3 type  1   force =    -0.01182513   -0.00152135   -0.01480258
     atom    4 type  1   force =    -0.01562290    0.00000028    0.09609360
     atom    5 type  1   force =     0.00791190    0.00149269   -0.01001656
     atom    6 type  1   force =     0.00791164   -0.00149320   -0.01001670
     atom    7 type  1   force =    -0.00333504    0.00008555    0.00887181
     atom    8 type  1   force =    -0.00405729   -0.00000054    0.00851814
     atom    9 type  1   force =    -0.00333457   -0.00008530    0.00887100
     atom   10 type  1   force =    -0.00342158    0.00000099    0.01651302
     atom   11 type  1   force =    -0.00311873    0.00085412    0.01673341
     atom   12 type  1   force =    -0.00311892   -0.00085459    0.01673271
     atom   13 type  1   force =     0.00235652    0.00467433   -0.00057819
     atom   14 type  1   force =     0.00142366   -0.00000029    0.01057282
     atom   15 type  1   force =     0.00235634   -0.00467359   -0.00057844
     atom   16 type  1   force =     0.00186181    0.00000052    0.00171613
     atom   17 type  1   force =     0.00125484   -0.00041719    0.00408916
     atom   18 type  1   force =     0.00125484    0.00041707    0.00408886
     atom   19 type  1   force =    -0.00188593   -0.00025756   -0.00311982
     atom   20 type  1   force =    -0.00222291   -0.00000028   -0.00201227
     atom   21 type  1   force =    -0.00188598    0.00025781   -0.00312023
     atom   22 type  1   force =    -0.00132667   -0.00000005   -0.00785636
     atom   23 type  1   force =    -0.00173795   -0.00070890   -0.00624965
     atom   24 type  1   force =    -0.00173797    0.00070908   -0.00625024
     atom   25 type  1   force =     0.00353216    0.00004279   -0.01744370
     atom   26 type  1   force =     0.00355958    0.00000011   -0.01796218
     atom   27 type  1   force =     0.00353211   -0.00004286   -0.01744425
     atom   28 type  1   force =     0.00136600   -0.00000025   -0.01046816
     atom   29 type  1   force =     0.00161614   -0.00001655   -0.01068958
     atom   30 type  1   force =     0.00161615    0.00001675   -0.01069010
     atom   31 type  1   force =    -0.00774399    0.00016440    0.01228843
     atom   32 type  1   force =    -0.00773476    0.00000048    0.01143361
     atom   33 type  1   force =    -0.00774398   -0.00016475    0.01228805
     atom   34 type  1   force =     0.00357224   -0.00000050    0.02696044
     atom   35 type  1   force =     0.00361334    0.00036585    0.02662537
     atom   36 type  1   force =     0.00361347   -0.00036541    0.02662519
     atom   37 type  2   force =     0.04189873   -0.00000037   -0.11630706

     Total force =     0.179650     Total SCF correction =     0.002159
 !ASE

     Writing output data file calc.save
     Check: negative starting charge=(component1):   -0.005894
     NEW-OLD atomic charge density approx. for the potential
     Check: negative starting charge=(component1):   -0.006241

[...]

     iteration #  1     ecut=    44.10 Ry     beta=0.10
     Davidson diagonalization with overlap
     c_bands:  1 eigenvalues not converged
     ethr =  2.35E-10,  avg # of iterations = 15.4

[...]

     Writing output data file calc.save
     Check: negative starting charge=(component1):   -0.006470
     NEW-OLD atomic charge density approx. for the potential
     Check: negative starting charge=(component1):   -0.006455

[...]

     Self-consistent Calculation

[...]

     iteration #  2     ecut=    44.10 Ry     beta=0.10
     Davidson diagonalization with overlap
     c_bands:  1 eigenvalues not converged
     ethr =  3.83E-07,  avg # of iterations =  7.9

[...]

     total energy              =   -2897.08003522 Ry
     Harris-Foulkes estimate   =   -2897.07999099 Ry
     estimated scf accuracy    <       0.00001634 Ry

[...]

     iteration # 16     ecut=    44.10 Ry     beta=0.10
     Davidson diagonalization with overlap
     ethr =  2.93E-10,  avg # of iterations =  1.2

     negative rho (up, down):  6.044E-03 1.791E-02

[...]

     Adding external electric field

     Computed dipole along edir(3) :
        Dipole               -0.2301 Ry au,         -0.5849 Debye
        Dipole field         -0.0002 Ry au

        Potential amp.        0.0336 Ry
        Total length         73.7482 bohr

     Magnetic moment per site:
     atom:    1    charge:    3.0156    magn:    0.6232    constr:    0.0000
     atom:    2    charge:    2.8883    magn:    0.8949    constr:    0.0000
     atom:    3    charge:    3.0110    magn:    0.6242    constr:    0.0000
     atom:    4    charge:    3.1588    magn:    0.6663    constr:    0.0000
     atom:    5    charge:    3.1183    magn:    0.9662    constr:    0.0000
     atom:    6    charge:    3.1182    magn:    0.9661    constr:    0.0000
     atom:    7    charge:    3.1994    magn:    0.9508    constr:    0.0000
     atom:    8    charge:    3.1042    magn:    0.9551    constr:    0.0000
     atom:    9    charge:    3.1994    magn:    0.9508    constr:    0.0000
     atom:   10    charge:    3.1991    magn:    0.9859    constr:    0.0000
     atom:   11    charge:    3.1806    magn:    0.9173    constr:    0.0000
     atom:   12    charge:    3.1808    magn:    0.9172    constr:    0.0000
     atom:   13    charge:    3.1979    magn:    0.9346    constr:    0.0000
     atom:   14    charge:    3.1942    magn:    0.9617    constr:    0.0000
     atom:   15    charge:    3.1979    magn:    0.9346    constr:    0.0000
     atom:   16    charge:    3.1980    magn:    0.9540    constr:    0.0000
     atom:   17    charge:    3.1937    magn:    0.9534    constr:    0.0000
     atom:   18    charge:    3.1937    magn:    0.9534    constr:    0.0000
     atom:   19    charge:    3.1988    magn:    0.9518    constr:    0.0000
     atom:   20    charge:    3.1983    magn:    0.9429    constr:    0.0000
     atom:   21    charge:    3.1988    magn:    0.9518    constr:    0.0000
     atom:   22    charge:    3.1996    magn:    0.9553    constr:    0.0000
     atom:   23    charge:    3.1998    magn:    0.9546    constr:    0.0000
     atom:   24    charge:    3.1998    magn:    0.9546    constr:    0.0000
     atom:   25    charge:    3.1993    magn:    0.9568    constr:    0.0000
     atom:   26    charge:    3.1993    magn:    0.9547    constr:    0.0000
     atom:   27    charge:    3.1994    magn:    0.9568    constr:    0.0000
     atom:   28    charge:    3.2025    magn:    0.9734    constr:    0.0000
     atom:   29    charge:    3.2028    magn:    0.9798    constr:    0.0000
     atom:   30    charge:    3.2028    magn:    0.9798    constr:    0.0000
     atom:   31    charge:    3.2082    magn:    0.9918    constr:    0.0000
     atom:   32    charge:    3.2083    magn:    0.9882    constr:    0.0000
     atom:   33    charge:    3.2082    magn:    0.9917    constr:    0.0000
     atom:   34    charge:    3.2203    magn:    1.0036    constr:    0.0000
     atom:   35    charge:    3.2199    magn:    1.0037    constr:    0.0000
     atom:   36    charge:    3.2199    magn:    1.0037    constr:    0.0000
     atom:   37    charge:    0.0513    magn:   -0.0021    constr:    0.0000

     End of self-consistent calculation

 ------ SPIN UP ------------

[...]

 ------ SPIN DOWN ----------

[...]

          k = 0.0538-0.0440 0.0000 ( 62686 PWs)   bands (ev):

   -11.6450  -8.3631  -7.5266  -7.1959  -7.0554  -6.4746  -6.3029  -6.0501
    -5.6250  -5.4193  -5.1003  -5.0232  -4.8256  -4.7574  -4.6227  -4.5546
    -4.5179  -4.4592  -4.4253  -4.3094  -4.2244  -4.1421  -4.0621  -4.0130
    -3.9224  -3.9034  -3.8594  -3.7699  -3.6942  -3.6683  -3.6270  -3.6017
    -3.5656  -3.5410  -3.4700  -3.4408  -3.4272  -3.3663  -3.2804  -3.2344
    -3.2039  -3.1648  -3.1332  -3.1152  -3.0882  -3.0491  -3.0091  -2.9694
    -2.9560  -2.9001  -2.8717  -2.8263  -2.7808  -2.7628  -2.7278  -2.6901
    -2.6694  -2.5888  -2.5588  -2.5360  -2.5202  -2.4646  -2.4473  -2.3984
    -2.3716  -2.3461  -2.2999  -2.2903  -2.2742  -2.2355  -2.2095  -2.1917
    -2.1642  -2.1185  -2.1060  -2.0750  -2.0427  -2.0235  -1.9990  -1.9812
    -1.9432  -1.9146  -1.8981  -1.8594  -1.8484  -1.8210  -1.8043  -1.8003
    -1.7674  -1.7568  -1.7187  -1.7026  -1.6595  -1.6229  -1.6076  -1.5919
    -1.5612  -1.5424  -1.5254  -1.5034  -1.4788  -1.4679  -1.4521  -1.4343
    -1.4165  -1.3970  -1.3842  -1.3574  -1.3292  -1.3147  -1.2910  -1.2711
    -1.2470  -1.2345  -1.2051  -1.1640  -1.1337  -1.1119  -1.0908  -1.0749
    -1.0407  -1.0099  -0.9893  -0.9639  -0.9314  -0.9119  -0.8934  -0.8805
    -0.8281  -0.8003  -0.7727  -0.7621  -0.7317  -0.6883  -0.6435  -0.6112
    -0.5827  -0.5503  -0.5239  -0.5057  -0.4758  -0.4607  -0.4400  -0.4336
    -0.4141  -0.3829  -0.3540  -0.3380  -0.3230  -0.2912  -0.2822  -0.2443
    -0.2335  -0.2058  -0.1905  -0.1733  -0.1565  -0.1488  -0.1173  -0.1059
    -0.0748  -0.0620  -0.0328  -0.0231   0.0045   0.0334   0.0510   0.0677
     0.1025   0.1225   0.1437   0.1516   0.1817   0.2060   0.2425   0.2461
     0.2710   0.2892   0.3007   0.3091   0.3190   0.3254   0.3535   0.3829
     0.3933   0.3974   0.4042   0.4339   0.4435   0.4555   0.4705   0.4793
     0.5332   0.5999   0.7713   0.8614   1.0031   1.0277   1.1496   1.2140
     1.2718   1.3095   1.4508   1.6460   1.7814   2.1313   2.2361   2.4074
     2.5153   2.6235   2.7898   2.9372   3.0502   3.2133   3.4755   3.6078
     3.7273   3.7780   3.8935   4.1066   4.1982   4.2101   4.3380   4.5157
     4.6772   4.7551   4.8019   4.8557   4.9666   5.0298   5.0662   5.1784
     5.2441   5.3876   5.4760   5.5070   5.5460   5.6188   5.6497   5.7938
     5.8423   5.8641   6.0097   6.0743   6.2031   6.2418   6.2931   6.4010
     6.4605   6.5240   6.5607   6.6251   6.6753   6.7241   6.8307   6.8427
     6.9767   7.0065   7.0377   7.1062   7.1709   7.2311   7.3594   7.4115

     the Fermi energy is    -0.6637 ev

!    total energy              =   -2897.08033970 Ry
     Harris-Foulkes estimate   =   -2897.08003580 Ry
     estimated scf accuracy    <       0.00000044 Ry

     The total energy is the sum of the following terms:

     one-electron contribution =  -61805.65478303 Ry
     hartree contribution      =   31200.44703074 Ry
     xc contribution           =   -1331.38777704 Ry
     ewald contribution        =   29039.62324469 Ry
     electric field correction =       0.00005248 Ry
     smearing contrib. (-TS)   =      -0.10810753 Ry

     total magnetization       =    60.64 Bohr mag/cell
     absolute magnetization    =    67.20 Bohr mag/cell

     convergence has been achieved in  16 iterations

     Forces acting on atoms (Ry/au):

     negative rho (up, down):  6.044E-03 1.791E-02
     atom    1 type  1   force =     0.00044951    0.00022041    0.00019995
     atom    2 type  1   force =     0.00137616   -0.00023533    0.00101095
     atom    3 type  1   force =    -0.00007162    0.00077167    0.00074793
     atom    4 type  1   force =     0.00111442   -0.00000606   -0.00074011
     atom    5 type  1   force =     0.00058906    0.00065708    0.00005414
     atom    6 type  1   force =     0.00048762   -0.00065868    0.00008968
     atom    7 type  1   force =     0.00061190    0.00023960    0.00067717
     atom    8 type  1   force =     0.00027654   -0.00006340   -0.00187677
     atom    9 type  1   force =     0.00073132   -0.00016846    0.00064570
     atom   10 type  1   force =     0.00088870    0.00007470    0.00025993
     atom   11 type  1   force =     0.00049618    0.00015354    0.00118701
     atom   12 type  1   force =     0.00048084   -0.00023732    0.00088818
     atom   13 type  1   force =     0.00014031    0.00044844    0.00065813
     atom   14 type  1   force =     0.00047230   -0.00003332   -0.00012157
     atom   15 type  1   force =     0.00014714   -0.00038708    0.00059753
     atom   16 type  1   force =     0.00020205    0.00004229    0.00068656
     atom   17 type  1   force =     0.00011959   -0.00024105   -0.00003993
     atom   18 type  1   force =     0.00010693    0.00020452   -0.00006220
     atom   19 type  1   force =    -0.00103904   -0.00155938   -0.00628279
     atom   20 type  1   force =    -0.00261688   -0.00002119   -0.00755408
     atom   21 type  1   force =    -0.00104225    0.00158843   -0.00627343
     atom   22 type  1   force =    -0.00191528    0.00003228   -0.01010018
     atom   23 type  1   force =    -0.00171515   -0.00058574   -0.00806824
     atom   24 type  1   force =    -0.00171118    0.00057076   -0.00806185
     atom   25 type  1   force =     0.00359760    0.00059918   -0.01525521
     atom   26 type  1   force =     0.00375291   -0.00002015   -0.01629325
     atom   27 type  1   force =     0.00359728   -0.00056259   -0.01526173
     atom   28 type  1   force =     0.00068190    0.00002605   -0.00965720
     atom   29 type  1   force =     0.00147077   -0.00025810   -0.01025811
     atom   30 type  1   force =     0.00146680    0.00025165   -0.01026931
     atom   31 type  1   force =    -0.00762473    0.00014802    0.01280399
     atom   32 type  1   force =    -0.00865149   -0.00001095    0.01167984
     atom   33 type  1   force =    -0.00762318   -0.00011969    0.01279481
     atom   34 type  1   force =     0.00325328    0.00002069    0.02734229
     atom   35 type  1   force =     0.00345691    0.00051107    0.02698193
     atom   36 type  1   force =     0.00344990   -0.00052046    0.02697224
     atom   37 type  2   force =     0.00059284   -0.00087144   -0.00010204

     Total force =     0.066227     Total SCF correction =     0.002267
 !ASE

     Writing output data file calc.save

     General routines

     Parallel routines

   This run was terminated on:   9:52: 6  21Apr2018

   JOB DONE.