     Program PWSCF v.5.1rc2 (svn rev. ) starts on 23Feb2018 at 12: 4:59

     Current dimensions of program PWSCF are:
     Max number of different atomic species (ntypx) = 10
     Max number of k-points (npk) =  40000
     Max angular momentum in pseudopotentials (lmaxx) =  3
     Presently no symmetry can be used with electric field

     IMPORTANT: XC functional enforced from input :
     Exchange-correlation      = RPBE ( 1  4 28  4 0)
     Any further DFT definition will be discarded
     Please, verify this is what you really want

               file Ni.UPF: wavefunction(s)  3D renormalized

     Subspace diagonalization in iterative solution of the eigenvalue problem:
     a serial algorithm will be used

     Generating pointlists ...
     new r_m :   0.4125 (alat units)  0.7795 (a.u.) for type    1
     new r_m :   0.4125 (alat units)  0.7795 (a.u.) for type    2

     bravais-lattice index     =            0
     lattice parameter (alat)  =       1.8897  a.u.
     unit-cell volume          =   10207.8337 (a.u.)^3
     number of atoms/cell      =           37
     number of atomic types    =            2
     number of electrons       =       364.00
     number of Kohn-Sham states=          282
     kinetic-energy cutoff     =      44.0992  Ry
     charge density cutoff     =     440.9919  Ry
     convergence threshold     =      7.3E-07
     mixing beta               =       0.1000
     number of iterations used =           10  plain     mixing
     Exchange-correlation      = RPBE ( 1  4 28  4 0)
     nstep                     =           50

     celldm(1)=   1.889726  celldm(2)=   0.000000  celldm(3)=   0.000000
     celldm(4)=   0.000000  celldm(5)=   0.000000  celldm(6)=   0.000000

     crystal axes: (cart. coord. in units of alat)
               a(1) = (  13.073539   0.000000   0.000000 )
               a(2) = (  -4.357846   6.162925   0.000000 )
               a(3) = (   0.000000   0.000000  18.774005 )

     reciprocal axes: (cart. coord. in units 2 pi/alat)
               b(1) = (  0.076490  0.054087  0.000000 )
               b(2) = (  0.000000  0.162261  0.000000 )
               b(3) = (  0.000000  0.000000  0.053265 )

     PseudoPot. # 1 for Ni read from file:
     /home/alatimer/bin/psp/esp_psp_w_gbrvRu/Ni.UPF
     MD5 check sum: 8b2449ee0060d9c33484ccd47bb60870
     Pseudo is Ultrasoft + core correction, Zval = 10.0
     Generated using "atomic" code by A. Dal Corso  v.5.0.2 svn rev. 9415
     Using radial grid of 1195 points,  6 beta functions with:
                l(1) =   0
                l(2) =   0
                l(3) =   1
                l(4) =   1
                l(5) =   2
                l(6) =   2
     Q(r) pseudized with 0 coefficients

     PseudoPot. # 2 for  C read from file:
     /home/alatimer/bin/psp/esp_psp_w_gbrvRu/C.UPF
     MD5 check sum: ab446d787031eba755f1d5ee46644bb0
     Pseudo is Ultrasoft + core correction, Zval =  4.0
     Generated using "atomic" code by A. Dal Corso  v.5.0.2 svn rev. 9415
     Using radial grid of 1073 points,  4 beta functions with:
                l(1) =   0
                l(2) =   0
                l(3) =   1
                l(4) =   1
     Q(r) pseudized with 0 coefficients

     atomic species   valence    mass     pseudopotential
        Ni1           10.00    58.69340     Ni( 1.00)
        C1             4.00    12.01100      C( 1.00)

     Starting magnetic structure
     atomic species   magnetization
        Ni1          0.300
        C1           0.750

     No symmetry found

   Cartesian axes

     site n.     atom                  positions (alat units)
         1           Ni1 tau(   1) = (   0.0000000   0.0000000   7.5000000  )
         2           Ni1 tau(   2) = (   2.1789231   0.0000000   8.7580018  )
         3           Ni1 tau(   3) = (   0.0000000   0.0000000  10.0160037  )
         4           Ni1 tau(   4) = (   2.1789231   0.0000000  11.2740055  )
         5           Ni1 tau(   5) = (  -1.4526154   2.0543084   7.5000000  )
         6           Ni1 tau(   6) = (   0.7263077   2.0543084   8.7580018  )
         7           Ni1 tau(   7) = (  -1.4526154   2.0543084  10.0160037  )
         8           Ni1 tau(   8) = (   0.7263077   2.0543084  11.2740055  )
         9           Ni1 tau(   9) = (  -2.9052308   4.1086168   7.5000000  )
        10           Ni1 tau(  10) = (  -0.7263077   4.1086168   8.7580018  )
        11           Ni1 tau(  11) = (  -2.9052308   4.1086168  10.0160037  )
        12           Ni1 tau(  12) = (  -0.7263077   4.1086168  11.2740055  )
        13           Ni1 tau(  13) = (   4.3578462   0.0000000   7.5000000  )
        14           Ni1 tau(  14) = (   6.5367693   0.0000000   8.7580018  )
        15           Ni1 tau(  15) = (   4.3578462   0.0000000  10.0160037  )
        16           Ni1 tau(  16) = (   6.5367693   0.0000000  11.2740055  )
        17           Ni1 tau(  17) = (   2.9052308   2.0543084   7.5000000  )
        18           Ni1 tau(  18) = (   5.0841539   2.0543084   8.7580018  )
        19           Ni1 tau(  19) = (   2.9052308   2.0543084  10.0160037  )
        20           Ni1 tau(  20) = (   5.0841539   2.0543084  11.2740055  )
        21           Ni1 tau(  21) = (   1.4526154   4.1086168   7.5000000  )
        22           Ni1 tau(  22) = (   3.6315385   4.1086168   8.7580018  )
        23           Ni1 tau(  23) = (   1.4526154   4.1086168  10.0160037  )
        24           Ni1 tau(  24) = (   3.6315385   4.1086168  11.2740055  )
        25           Ni1 tau(  25) = (   8.7156924   0.0000000   7.5000000  )
        26           Ni1 tau(  26) = (  10.8946154   0.0000000   8.7580018  )
        27           Ni1 tau(  27) = (   8.7156924   0.0000000  10.0160037  )
        28           Ni1 tau(  28) = (  10.8946154   0.0000000  11.2740055  )
        29           Ni1 tau(  29) = (   7.2630770   2.0543084   7.5000000  )
        30           Ni1 tau(  30) = (   9.4420001   2.0543084   8.7580018  )
        31           Ni1 tau(  31) = (   7.2630770   2.0543084  10.0160037  )
        32           Ni1 tau(  32) = (   9.4420001   2.0543084  11.2740055  )
        33           Ni1 tau(  33) = (   5.8104616   4.1086168   7.5000000  )
        34           Ni1 tau(  34) = (   7.9893847   4.1086168   8.7580018  )
        35           Ni1 tau(  35) = (   5.8104616   4.1086168  10.0160037  )
        36           Ni1 tau(  36) = (   7.9893847   4.1086168  11.2740055  )
        37           C1  tau(  37) = (   0.7263077   2.0543084  13.0740055  )

     number of k points=    10  Fermi-Dirac smearing, width (Ry)=  0.0073
                       cart. coord. in units 2pi/alat
        k(    1) = (   0.0000000   0.0000000   0.0000000), wk =   0.1111111
        k(    2) = (   0.0000000   0.0540869   0.0000000), wk =   0.2222222
        k(    3) = (   0.0254968   0.0180290   0.0000000), wk =   0.2222222
        k(    4) = (   0.0254968   0.0721158   0.0000000), wk =   0.2222222
        k(    5) = (   0.0254968  -0.0360579   0.0000000), wk =   0.2222222
        k(    6) = (   0.0000000   0.0000000   0.0000000), wk =   0.1111111
        k(    7) = (   0.0000000   0.0540869   0.0000000), wk =   0.2222222
        k(    8) = (   0.0254968   0.0180290   0.0000000), wk =   0.2222222
        k(    9) = (   0.0254968   0.0721158   0.0000000), wk =   0.2222222
        k(   10) = (   0.0254968  -0.0360579   0.0000000), wk =   0.2222222

     Largest allocated arrays     est. size (Mb)     dimensions
     Largest temporary arrays     est. size (Mb)     dimensions

     Initial potential from superposition of free atoms
     Check: negative starting charge=(component1):   -0.000482
     Check: negative starting charge=(component2):   -0.000269

     starting charge  363.99092, renormalised to  364.00000

     negative rho (up, down):  4.820E-04 2.695E-04

     Adding external electric field

     Computed dipole along edir(3) :
        Dipole               -0.0004 Ry au,         -0.0010 Debye
        Dipole field         -0.0000 Ry au

        Potential amp.        0.0000 Ry
        Total length         34.5908 bohr

[...]

     Starting wfc are  328 randomized atomic wfcs

     Self-consistent Calculation

     iteration #  1     ecut=    44.10 Ry     beta=0.10
     Davidson diagonalization with overlap
     ethr =  1.00E-02,  avg # of iterations =  7.1

[...]

     Magnetic moment per site:
     atom:    1    charge:    3.9560    magn:    1.1257    constr:    0.0000
     atom:    2    charge:    3.9767    magn:    1.1071    constr:    0.0000
     atom:    3    charge:    3.9782    magn:    1.1061    constr:    0.0000
     atom:    4    charge:    3.9572    magn:    1.1245    constr:    0.0000
     atom:    5    charge:    3.9560    magn:    1.1257    constr:    0.0000
     atom:    6    charge:    3.9778    magn:    1.1057    constr:    0.0000
     atom:    7    charge:    3.9782    magn:    1.1061    constr:    0.0000
     atom:    8    charge:    3.9710    magn:    1.0938    constr:    0.0000
     atom:    9    charge:    3.9559    magn:    1.1252    constr:    0.0000
     atom:   10    charge:    3.9767    magn:    1.1070    constr:    0.0000
     atom:   11    charge:    3.9766    magn:    1.1073    constr:    0.0000
     atom:   12    charge:    3.9572    magn:    1.1245    constr:    0.0000
     atom:   13    charge:    3.9559    magn:    1.1252    constr:    0.0000
     atom:   14    charge:    3.9764    magn:    1.1072    constr:    0.0000
     atom:   15    charge:    3.9766    magn:    1.1073    constr:    0.0000
     atom:   16    charge:    3.9561    magn:    1.1250    constr:    0.0000
     atom:   17    charge:    3.9560    magn:    1.1256    constr:    0.0000
     atom:   18    charge:    3.9764    magn:    1.1072    constr:    0.0000
     atom:   19    charge:    3.9782    magn:    1.1061    constr:    0.0000
     atom:   20    charge:    3.9561    magn:    1.1250    constr:    0.0000
     atom:   21    charge:    3.9560    magn:    1.1257    constr:    0.0000
     atom:   22    charge:    3.9768    magn:    1.1072    constr:    0.0000
     atom:   23    charge:    3.9782    magn:    1.1061    constr:    0.0000
     atom:   24    charge:    3.9559    magn:    1.1251    constr:    0.0000
     atom:   25    charge:    3.9560    magn:    1.1251    constr:    0.0000
     atom:   26    charge:    3.9767    magn:    1.1072    constr:    0.0000
     atom:   27    charge:    3.9763    magn:    1.1073    constr:    0.0000
     atom:   28    charge:    3.9559    magn:    1.1251    constr:    0.0000
     atom:   29    charge:    3.9548    magn:    1.1261    constr:    0.0000
     atom:   30    charge:    3.9764    magn:    1.1072    constr:    0.0000
     atom:   31    charge:    3.9766    magn:    1.1075    constr:    0.0000
     atom:   32    charge:    3.9561    magn:    1.1250    constr:    0.0000
     atom:   33    charge:    3.9560    magn:    1.1251    constr:    0.0000
     atom:   34    charge:    3.9764    magn:    1.1072    constr:    0.0000
     atom:   35    charge:    3.9763    magn:    1.1073    constr:    0.0000
     atom:   36    charge:    3.9561    magn:    1.1250    constr:    0.0000
[...]
    -2.2390  -2.1532  -2.1345  -2.1167  -2.1138  -2.1101  -2.1019  -2.0651
    -2.0527  -2.0462  -2.0260  -2.0149  -2.0107  -2.0017  -1.9651  -1.9584
    -1.9508  -1.9063  -1.8961  -1.8821  -1.8534  -1.8440  -1.8422  -1.8353
    -1.8348  -1.7318  -1.7288  -1.6765  -1.6630  -1.6602  -1.6598  -1.6551
    -1.6546  -1.6490  -1.6489  -1.6284  -1.6261  -1.6258  -1.5973  -1.5739
    -1.5240  -1.5239  -1.4859  -1.4703  -1.4411  -1.3344  -1.3278  -1.3249
    -1.2919  -1.2861  -1.2452  -1.2381  -1.2302  -1.2074  -1.2021  -1.1993
    -1.1811  -1.1325  -1.1301  -1.1193  -1.0804  -1.0773  -1.0722  -1.0467
    -1.0424  -1.0267  -1.0229  -1.0173  -1.0163  -0.9948  -0.9790  -0.9530
    -0.9321  -0.9034  -0.8515  -0.8427  -0.8346  -0.8292  -0.8252  -0.8094
    -0.7999  -0.7915  -0.7804  -0.7273  -0.7193  -0.7172  -0.7164  -0.6870
    -0.6559  -0.6412  -0.6339  -0.6278  -0.6271  -0.6055  -0.6046  -0.6005
    -0.5761  -0.5702  -0.5227  -0.5196  -0.5194  -0.4875  -0.4771  -0.4748
    -0.4741  -0.4661  -0.4599  -0.4364  -0.4298  -0.4272  -0.4228  -0.4112
    -0.4070  -0.4028  -0.4019  -0.3977  -0.3705  -0.3673  -0.3646  -0.3549
    -0.3490  -0.3133  -0.2998  -0.2995  -0.2933  -0.2751  -0.2722  -0.2466
    -0.2238  -0.2213  -0.2166  -0.2133  -0.2069  -0.2000  -0.1463  -0.1430
    -0.1107  -0.1039  -0.0979   0.3219   0.3642   0.4892   0.7641   0.8889
     0.9130   1.3368   1.3944   1.4824   1.7033   1.8388   1.9525   2.6146
     2.7304   2.7508   2.8518   2.9164   2.9188   2.9682   2.9984   3.0313
     3.3265   3.6474   3.9784   3.9920   4.3189   4.3493   4.4482   4.7685
     5.2157   5.2215   5.5111   5.5279   5.5311   5.5331   5.5680   5.5754
     5.6363   5.6390   6.0903   6.1279   6.1312   6.1745   6.4597   6.4763
     6.6840   6.7588   6.8942   6.8963   6.9747   7.2206   7.3374   7.4296
     7.6555   7.6878   7.7114   7.7254   7.7326   7.8038   7.9059   7.9171
     8.0205   8.0344   8.1142   8.1375   8.1422   8.1425   8.4220   8.4262
     8.4292   8.5482   8.5763   8.5818   8.5944   8.7412   8.7536   8.8942
     8.9488   9.0964   9.1080   9.1160   9.3270   9.3289   9.4205   9.5123
     9.5427   9.5432

[...]

 ------ SPIN DOWN ----------

[...]

     the Fermi energy is     0.3754 ev

!    total energy              =   -3633.79748125 Ry
     Harris-Foulkes estimate   =   -3633.79747961 Ry
     estimated scf accuracy    <       0.00000046 Ry

     The total energy is the sum of the following terms:

     one-electron contribution =  -18637.09686298 Ry
     hartree contribution      =    9696.27562608 Ry
     xc contribution           =   -1508.39592503 Ry
     ewald contribution        =    6815.61045517 Ry
     electric field correction =       0.00018326 Ry
     smearing contrib. (-TS)   =      -0.19095773 Ry

[...]

     convergence has been achieved in 119 iterations

     Forces acting on atoms (Ry/au):

     negative rho (up, down):  3.582E-04 2.721E-04
     atom    1 type  1   force =    -0.00015038    0.00004785    0.02008403
     atom    2 type  1   force =    -0.00031894    0.00051617   -0.01105714
     atom    3 type  1   force =    -0.00133306   -0.00174089    0.00680226
     atom    4 type  1   force =    -0.00012811    0.00009263   -0.00963395
     atom    5 type  1   force =     0.00005766   -0.00024822    0.02002293
     atom    6 type  1   force =     0.00013722   -0.00007463   -0.02322437
     atom    7 type  1   force =    -0.00200687   -0.00079164    0.00683248
     atom    8 type  1   force =     0.00003361   -0.00010789    0.12319402
     atom    9 type  1   force =     0.00020399    0.00027789    0.01891484
     atom   10 type  1   force =     0.00030049   -0.00035736   -0.01108802
     atom   11 type  1   force =     0.00073059    0.00068879    0.01113331
     atom   12 type  1   force =    -0.00001696   -0.00006183   -0.00957232
     atom   13 type  1   force =    -0.00029541   -0.00007732    0.01886548
     atom   14 type  1   force =    -0.00018245    0.00037040   -0.01093384
     atom   15 type  1   force =    -0.00092504   -0.00048618    0.01102604
     atom   16 type  1   force =     0.00005912    0.00079321   -0.01952767
     atom   17 type  1   force =     0.00003117    0.00022428    0.02005031
     atom   18 type  1   force =     0.00020985   -0.00018442   -0.01090640
     atom   19 type  1   force =     0.00205088    0.00069546    0.00667567
     atom   20 type  1   force =     0.00070688   -0.00012544   -0.01958904
     atom   21 type  1   force =     0.00028550   -0.00013265    0.01998970
     atom   22 type  1   force =    -0.00024323   -0.00033930   -0.01078645
     atom   23 type  1   force =     0.00142235    0.00159209    0.00670623
     atom   24 type  1   force =     0.00055614    0.00026494   -0.01931200
     atom   25 type  1   force =    -0.00003485   -0.00005712    0.01952220
     atom   26 type  1   force =     0.00034597    0.00007448   -0.01066764
     atom   27 type  1   force =     0.00039160   -0.00052641    0.01129502
     atom   28 type  1   force =    -0.00040580   -0.00041710   -0.01927287
     atom   29 type  1   force =    -0.00009485    0.00006330    0.01915818
     atom   30 type  1   force =    -0.00034410    0.00030606   -0.01080939
     atom   31 type  1   force =    -0.00004454    0.00013502    0.01126941
     atom   32 type  1   force =    -0.00074367    0.00026135   -0.01950736
     atom   33 type  1   force =    -0.00000260   -0.00010006    0.01958285
     atom   34 type  1   force =     0.00009546   -0.00031136   -0.01078126
     atom   35 type  1   force =    -0.00028536    0.00043450    0.01126375
     atom   36 type  1   force =    -0.00006198   -0.00069895   -0.01956755
     atom   37 type  2   force =    -0.00000030    0.00000036   -0.13615146

     Total force =     0.204804     Total SCF correction =     0.001700
 !ASE

     Writing output data file calc.save
     Check: negative starting charge=(component1):   -0.000748
     NEW-OLD atomic charge density approx. for the potential
     Check: negative starting charge=(component1):   -0.000789

[...]

     iteration #  1     ecut=    44.10 Ry     beta=0.10
     Davidson diagonalization with overlap
     c_bands:  1 eigenvalues not converged
     c_bands:  1 eigenvalues not converged
     ethr =  2.12E-10,  avg # of iterations = 10.9

[...]

     Writing output data file calc.save
     Check: negative starting charge=(component1):   -0.000809
     NEW-OLD atomic charge density approx. for the potential
     Check: negative starting charge=(component1):   -0.000810

[...]

     Self-consistent Calculation

[...]

     total energy              =   -3633.83842115 Ry
     Harris-Foulkes estimate   =   -3633.83842109 Ry
     estimated scf accuracy    <       0.00000311 Ry

[...]

     iteration # 17     ecut=    44.10 Ry     beta=0.10
     Davidson diagonalization with overlap
     ethr =  5.39E-10,  avg # of iterations =  1.0

     negative rho (up, down):  3.971E-04 2.992E-04

[...]

     Adding external electric field

     Computed dipole along edir(3) :
        Dipole               -0.3044 Ry au,         -0.7736 Debye
        Dipole field         -0.0004 Ry au

        Potential amp.        0.0259 Ry
        Total length         34.5908 bohr

     Magnetic moment per site:
     atom:    1    charge:    3.9860    magn:    0.4241    constr:    0.0000
     atom:    2    charge:    3.9707    magn:    0.3776    constr:    0.0000
     atom:    3    charge:    3.9705    magn:    0.3511    constr:    0.0000
     atom:    4    charge:    3.9577    magn:    0.3947    constr:    0.0000
     atom:    5    charge:    3.9860    magn:    0.4241    constr:    0.0000
     atom:    6    charge:    3.9717    magn:    0.3455    constr:    0.0000
     atom:    7    charge:    3.9704    magn:    0.3511    constr:    0.0000
     atom:    8    charge:    3.9440    magn:    0.0332    constr:    0.0000
     atom:    9    charge:    3.9860    magn:    0.4304    constr:    0.0000
     atom:   10    charge:    3.9707    magn:    0.3776    constr:    0.0000
     atom:   11    charge:    3.9604    magn:    0.3908    constr:    0.0000
     atom:   12    charge:    3.9577    magn:    0.3947    constr:    0.0000
     atom:   13    charge:    3.9860    magn:    0.4304    constr:    0.0000
     atom:   14    charge:    3.9709    magn:    0.3932    constr:    0.0000
     atom:   15    charge:    3.9606    magn:    0.3908    constr:    0.0000
     atom:   16    charge:    3.8670    magn:    0.4140    constr:    0.0000
     atom:   17    charge:    3.9860    magn:    0.4241    constr:    0.0000
     atom:   18    charge:    3.9709    magn:    0.3932    constr:    0.0000
     atom:   19    charge:    3.9706    magn:    0.3511    constr:    0.0000
     atom:   20    charge:    3.8670    magn:    0.4140    constr:    0.0000
     atom:   21    charge:    3.9860    magn:    0.4241    constr:    0.0000
     atom:   22    charge:    3.9708    magn:    0.3889    constr:    0.0000
     atom:   23    charge:    3.9705    magn:    0.3512    constr:    0.0000
     atom:   24    charge:    3.8635    magn:    0.4119    constr:    0.0000
     atom:   25    charge:    3.9861    magn:    0.4286    constr:    0.0000
     atom:   26    charge:    3.9709    magn:    0.3889    constr:    0.0000
     atom:   27    charge:    3.9667    magn:    0.3882    constr:    0.0000
     atom:   28    charge:    3.8653    magn:    0.4120    constr:    0.0000
     atom:   29    charge:    3.9861    magn:    0.4329    constr:    0.0000
     atom:   30    charge:    3.9709    magn:    0.3932    constr:    0.0000
     atom:   31    charge:    3.9674    magn:    0.3832    constr:    0.0000
     atom:   32    charge:    3.8689    magn:    0.4141    constr:    0.0000
     atom:   33    charge:    3.9861    magn:    0.4286    constr:    0.0000
     atom:   34    charge:    3.9709    magn:    0.3932    constr:    0.0000
     atom:   35    charge:    3.9668    magn:    0.3882    constr:    0.0000
     atom:   36    charge:    3.8688    magn:    0.4142    constr:    0.0000
     atom:   37    charge:    0.5518    magn:   -0.0218    constr:    0.0000

     End of self-consistent calculation

 ------ SPIN UP ------------

[...]

 ------ SPIN DOWN ----------

[...]

          k = 0.0255-0.0361 0.0000 ( 50488 PWs)   bands (ev):

    -9.6390  -7.1044  -6.2460  -5.8599  -5.8320  -5.0865  -5.0736  -4.4298
    -3.8851  -3.8142  -3.7136  -3.6916  -3.5246  -3.5126  -3.5124  -3.3877
    -3.3717  -3.2665  -3.2635  -3.1683  -3.0734  -3.0627  -3.0047  -3.0026
    -2.9620  -2.8777  -2.8746  -2.7752  -2.7597  -2.6297  -2.6268  -2.6140
    -2.5915  -2.5575  -2.4860  -2.4783  -2.4398  -2.3919  -2.3840  -2.3527
    -2.2310  -2.2136  -2.1921  -2.1594  -2.1053  -2.1028  -2.0737  -2.0719
    -2.0563  -2.0188  -2.0179  -2.0036  -1.9624  -1.9468  -1.8771  -1.7894
    -1.7609  -1.7415  -1.7259  -1.6519  -1.6135  -1.5807  -1.5583  -1.5559
    -1.5051  -1.5042  -1.4800  -1.4701  -1.4620  -1.4461  -1.4385  -1.4308
    -1.4292  -1.4255  -1.3914  -1.3882  -1.3423  -1.3176  -1.3018  -1.2794
    -1.2005  -1.1798  -1.1780  -1.1576  -1.1386  -1.1038  -1.0896  -1.0794
    -1.0654  -1.0593  -1.0463  -1.0055  -0.9971  -0.9916  -0.9737  -0.9594
    -0.9478  -0.9121  -0.8858  -0.8704  -0.8494  -0.8440  -0.8085  -0.8031
    -0.7824  -0.7563  -0.7470  -0.7204  -0.7119  -0.6972  -0.6815  -0.6798
    -0.6303  -0.6206  -0.5932  -0.5325  -0.5181  -0.5156  -0.4747  -0.4744
    -0.4595  -0.4336  -0.4266  -0.4098  -0.3825  -0.3599  -0.3360  -0.3149
    -0.2978  -0.2888  -0.2702  -0.2277  -0.2221  -0.2083  -0.1762  -0.1399
    -0.1381  -0.1200  -0.0916  -0.0550  -0.0239  -0.0062   0.0394   0.0466
     0.0607   0.0807   0.0840   0.0969   0.1012   0.1228   0.1320   0.1366
     0.1475   0.1708   0.1824   0.2050   0.2089   0.2232   0.2461   0.2534
     0.2834   0.2869   0.2888   0.2913   0.3261   0.3420   0.3472   0.3620
     0.3674   0.3809   0.4028   0.4203   0.4208   0.4297   0.4428   0.4478
     0.4624   0.4660   0.4878   0.4887   0.5470   0.5649   0.5844   0.6138
     0.6176   0.6278   0.6310   0.6445   0.6474   0.6834   0.7397   0.8250
     0.9797   0.9869   1.1121   1.1354   1.2525   1.2876   1.4068   1.4193
     1.4883   1.6455   1.7362   2.0362   2.0725   2.3284   2.4592   2.4605
     2.7634   2.9043   3.0656   3.0761   3.2766   3.3879   3.4405   3.5119
     3.6088   3.6135   3.7505   3.9907   4.2510   4.3456   4.3657   4.6587
     4.6831   5.1097   5.1431   5.2066   5.4526   5.4813   5.6609   5.7552
     5.8889   5.8891   5.9628   6.1787   6.3771   6.3887   6.5144   6.6622
     6.7412   6.7542   6.8109   6.8133   6.8212   6.8647   7.0024   7.1215
     7.1702   7.2487   7.3081   7.6187   7.6402   7.7886   8.0092   8.0392
     8.0768   8.0785   8.1726   8.2683   8.3493   8.4153   8.4361   8.6104
     8.7239   8.7455   8.8713   8.9115   9.0003   9.1519   9.1820   9.1974
     9.5293   9.5905   9.6443   9.6634   9.7683   9.8503   9.8667   9.9316
     9.9934  10.0047

     the Fermi energy is     0.3957 ev

!    total energy              =   -3633.83842099 Ry
     Harris-Foulkes estimate   =   -3633.83842297 Ry
     estimated scf accuracy    <       0.00000042 Ry

     The total energy is the sum of the following terms:

     one-electron contribution =  -18850.57608705 Ry
     hartree contribution      =    9802.79499830 Ry
     xc contribution           =   -1508.70540685 Ry
     ewald contribution        =    6922.83470129 Ry
     electric field correction =       0.00011405 Ry
     smearing contrib. (-TS)   =      -0.18674071 Ry

     total magnetization       =    23.18 Bohr mag/cell
     absolute magnetization    =    26.99 Bohr mag/cell

     convergence has been achieved in  17 iterations

     Forces acting on atoms (Ry/au):

     negative rho (up, down):  3.971E-04 2.992E-04
     atom    1 type  1   force =    -0.00024237   -0.00019318    0.01930670
     atom    2 type  1   force =    -0.00012743    0.00027030   -0.01578432
     atom    3 type  1   force =    -0.00034783   -0.00018922    0.00013814
     atom    4 type  1   force =    -0.00007063    0.00015020   -0.00009071
     atom    5 type  1   force =    -0.00022948   -0.00017771    0.01929922
     atom    6 type  1   force =     0.00005956    0.00002859   -0.02912309
     atom    7 type  1   force =    -0.00029531   -0.00025125    0.00014216
     atom    8 type  1   force =     0.00000709    0.00002348    0.00041144
     atom    9 type  1   force =     0.00022932    0.00020234    0.01961036
     atom   10 type  1   force =     0.00022907   -0.00018571   -0.01576858
     atom   11 type  1   force =    -0.00022861   -0.00017598    0.00040139
     atom   12 type  1   force =     0.00013317   -0.00012472   -0.00009517
     atom   13 type  1   force =    -0.00021770   -0.00016411    0.01957467
     atom   14 type  1   force =    -0.00111652    0.00023321   -0.01906416
     atom   15 type  1   force =     0.00008720    0.00004133    0.00029741
     atom   16 type  1   force =    -0.00002667    0.00003283    0.00017022
     atom   17 type  1   force =     0.00027125    0.00018412    0.01926315
     atom   18 type  1   force =    -0.00013535   -0.00109502   -0.01907244
     atom   19 type  1   force =     0.00013192    0.00015728    0.00006054
     atom   20 type  1   force =     0.00003422   -0.00003517    0.00017222
     atom   21 type  1   force =     0.00025773    0.00019748    0.01926524
     atom   22 type  1   force =    -0.00034286   -0.00026577   -0.01955692
     atom   23 type  1   force =     0.00018162    0.00008478    0.00004491
     atom   24 type  1   force =    -0.00000133    0.00000657    0.00016785
     atom   25 type  1   force =    -0.00006709    0.00002768    0.01954271
     atom   26 type  1   force =     0.00033958    0.00017550   -0.01935362
     atom   27 type  1   force =     0.00014132    0.00012684    0.00033236
     atom   28 type  1   force =    -0.00002934   -0.00002824   -0.00002089
     atom   29 type  1   force =    -0.00005034    0.00001324    0.01897834
     atom   30 type  1   force =     0.00008756    0.00109244   -0.01885945
     atom   31 type  1   force =     0.00015738    0.00011246    0.00031651
     atom   32 type  1   force =    -0.00004939    0.00002329   -0.00002298
     atom   33 type  1   force =     0.00004093   -0.00009550    0.01955165
     atom   34 type  1   force =     0.00102279   -0.00024465   -0.01887087
     atom   35 type  1   force =     0.00017124    0.00009393    0.00032384
     atom   36 type  1   force =    -0.00000486   -0.00005569   -0.00001963
     atom   37 type  2   force =     0.00000015    0.00000404   -0.00166821

     Total force =     0.083257     Total SCF correction =     0.002060
 !ASE

     Writing output data file calc.save

     General routines

     Parallel routines

   This run was terminated on:  23:37:31  23Feb2018

   JOB DONE.