     Program PWSCF v.5.1rc2 (svn rev. ) starts on 18Mar2017 at 15:48:56

     Current dimensions of program PWSCF are:
     Max number of different atomic species (ntypx) = 10
     Max number of k-points (npk) =  40000
     Max angular momentum in pseudopotentials (lmaxx) =  3
     Presently no symmetry can be used with electric field

     IMPORTANT: XC functional enforced from input :
     Exchange-correlation      = RPBE ( 1  4 28  4 0)
     Any further DFT definition will be discarded
     Please, verify this is what you really want

               file Ni.UPF: wavefunction(s)  3D renormalized

     Subspace diagonalization in iterative solution of the eigenvalue problem:
     a serial algorithm will be used

     Generating pointlists ...
     new r_m :   0.4125 (alat units)  0.7795 (a.u.) for type    1
     new r_m :   0.4125 (alat units)  0.7795 (a.u.) for type    2
     new r_m :   0.4125 (alat units)  0.7795 (a.u.) for type    3

     bravais-lattice index     =            0
     lattice parameter (alat)  =       1.8897  a.u.
     unit-cell volume          =    7046.4111 (a.u.)^3
     number of atoms/cell      =           45
     number of atomic types    =            3
     number of electrons       =       412.00
     number of Kohn-Sham states=          306
     kinetic-energy cutoff     =      44.0992  Ry
     charge density cutoff     =     440.9919  Ry
     convergence threshold     =      7.3E-07
     mixing beta               =       0.1000
     number of iterations used =           10  plain     mixing
     Exchange-correlation      = RPBE ( 1  4 28  4 0)
     nstep                     =           50

     celldm(1)=   1.889726  celldm(2)=   0.000000  celldm(3)=   0.000000
     celldm(4)=   0.000000  celldm(5)=   0.000000  celldm(6)=   0.000000

     crystal axes: (cart. coord. in units of alat)
               a(1) = (   7.548011   0.000000   0.000000 )
               a(2) = (  -3.774005   6.536769   0.000000 )
               a(3) = (   0.000000   0.000000  21.162925 )

     reciprocal axes: (cart. coord. in units 2 pi/alat)
               b(1) = (  0.132485  0.076490  0.000000 )
               b(2) = (  0.000000  0.152981  0.000000 )
               b(3) = (  0.000000  0.000000  0.047252 )

     PseudoPot. # 1 for Ni read from file:
     /home/alatimer/bin/psp/esp_psp_w_gbrvRu/Ni.UPF
     MD5 check sum: 8b2449ee0060d9c33484ccd47bb60870
     Pseudo is Ultrasoft + core correction, Zval = 10.0
     Generated using "atomic" code by A. Dal Corso  v.5.0.2 svn rev. 9415
     Using radial grid of 1195 points,  6 beta functions with:
                l(1) =   0
                l(2) =   0
                l(3) =   1
                l(4) =   1
                l(5) =   2
                l(6) =   2
     Q(r) pseudized with 0 coefficients

     PseudoPot. # 2 for  O read from file:
     /home/alatimer/bin/psp/esp_psp_w_gbrvRu/O.UPF
     MD5 check sum: e057bbcf3229fb5d8c36c0c92f9568b4
     Pseudo is Ultrasoft + core correction, Zval =  6.0
     Generated using "atomic" code by A. Dal Corso  v.5.0.2 svn rev. 9415
     Using radial grid of 1095 points,  4 beta functions with:
                l(1) =   0
                l(2) =   0
                l(3) =   1
                l(4) =   1
     Q(r) pseudized with 0 coefficients

     PseudoPot. # 3 for  C read from file:
     /home/alatimer/bin/psp/esp_psp_w_gbrvRu/C.UPF
     MD5 check sum: ab446d787031eba755f1d5ee46644bb0
     Pseudo is Ultrasoft + core correction, Zval =  4.0
     Generated using "atomic" code by A. Dal Corso  v.5.0.2 svn rev. 9415
     Using radial grid of 1073 points,  4 beta functions with:
                l(1) =   0
                l(2) =   0
                l(3) =   1
                l(4) =   1
     Q(r) pseudized with 0 coefficients

     atomic species   valence    mass     pseudopotential
        Ni1           10.00    58.69340     Ni( 1.00)
        O1             6.00    15.99940      O( 1.00)
        C1             4.00    12.01100      C( 1.00)

     Starting magnetic structure
     atomic species   magnetization
        Ni1          0.300
        O1           0.500
        C1           0.750

     No symmetry found

   Cartesian axes

     site n.     atom                  positions (alat units)
         1           Ni1 tau(   1) = (   0.0000000   0.0000000   7.5000000  )
         2           Ni1 tau(   2) = (   1.2580018   0.7263077   9.5543084  )
         3           Ni1 tau(   3) = (   0.0000000   1.4526154  11.6086168  )
         4           Ni1 tau(   4) = (   1.2580018   2.1789231  13.6629252  )
         5           Ni1 tau(   5) = (  -1.2580018   2.1789231   7.5000000  )
         6           Ni1 tau(   6) = (   0.0000000   2.9052308   9.5543084  )
         7           Ni1 tau(   7) = (  -1.2580018   3.6315385  11.6086168  )
         8           Ni1 tau(   8) = (  -0.0000000   4.3578462  13.6629252  )
         9           Ni1 tau(   9) = (  -2.5160037   4.3578462   7.5000000  )
        10           Ni1 tau(  10) = (  -1.2580018   5.0841539   9.5543084  )
        11           Ni1 tau(  11) = (  -2.5160037   5.8104616  11.6086168  )
        12           Ni1 tau(  12) = (  -1.2580018   6.5367693  13.6629252  )
        13           Ni1 tau(  13) = (   2.5160037   0.0000000   7.5000000  )
        14           Ni1 tau(  14) = (   3.7740055   0.7263077   9.5543084  )
        15           Ni1 tau(  15) = (   2.5160037   1.4526154  11.6086168  )
        16           Ni1 tau(  16) = (   3.7740055   2.1789231  13.6629252  )
        17           Ni1 tau(  17) = (   1.2580018   2.1789231   7.5000000  )
        18           Ni1 tau(  18) = (   2.5160037   2.9052308   9.5543084  )
        19           Ni1 tau(  19) = (   1.2580018   3.6315385  11.6086168  )
        20           Ni1 tau(  20) = (   2.5160037   4.3578462  13.6629252  )
        21           Ni1 tau(  21) = (  -0.0000000   4.3578462   7.5000000  )
        22           Ni1 tau(  22) = (   1.2580018   5.0841539   9.5543084  )
        23           Ni1 tau(  23) = (  -0.0000000   5.8104616  11.6086168  )
        24           Ni1 tau(  24) = (   1.2580018   6.5367693  13.6629252  )
        25           Ni1 tau(  25) = (   5.0320073   0.0000000   7.5000000  )
        26           Ni1 tau(  26) = (   6.2900092   0.7263077   9.5543084  )
        27           Ni1 tau(  27) = (   5.0320073   1.4526154  11.6086168  )
        28           Ni1 tau(  28) = (   6.2900092   2.1789231  13.6629252  )
        29           Ni1 tau(  29) = (   3.7740055   2.1789231   7.5000000  )
        30           Ni1 tau(  30) = (   5.0320073   2.9052308   9.5543084  )
        31           Ni1 tau(  31) = (   3.7740055   3.6315385  11.6086168  )
        32           Ni1 tau(  32) = (   5.0320073   4.3578462  13.6629252  )
        33           Ni1 tau(  33) = (   2.5160037   4.3578462   7.5000000  )
        34           Ni1 tau(  34) = (   3.7740055   5.0841539   9.5543084  )
        35           Ni1 tau(  35) = (   2.5160037   5.8104616  11.6086168  )
        36           Ni1 tau(  36) = (   3.7740055   6.5367693  13.6629252  )
        37           O1  tau(  37) = (   3.7935804   5.2277866  14.8463543  )
        38           O1  tau(  38) = (   1.2203265   5.1554212  14.8463543  )
        39           O1  tau(  39) = (   3.7363302   0.8975750  14.8463543  )
        40           O1  tau(  40) = (   6.2523338   0.8975750  14.8463543  )
        41           O1  tau(  41) = (   1.1203265   0.8975750  14.8463543  )
        42           O1  tau(  42) = (  -1.3956772   5.2554212  14.8463543  )
        43           O1  tau(  43) = (   5.0943320   2.9764981  14.8463543  )
        44           O1  tau(  44) = (  -0.0376753   2.9764981  14.8463543  )
        45           C1  tau(  45) = (   2.4580018   2.9789231  14.9629252  )

     number of k points=    10  Fermi-Dirac smearing, width (Ry)=  0.0073
                       cart. coord. in units 2pi/alat
        k(    1) = (   0.0000000   0.0000000   0.0000000), wk =   0.1111111
        k(    2) = (   0.0000000   0.0509936   0.0000000), wk =   0.2222222
        k(    3) = (   0.0441617   0.0254968   0.0000000), wk =   0.2222222
        k(    4) = (   0.0441617   0.0764904   0.0000000), wk =   0.2222222
        k(    5) = (   0.0441617  -0.0254968   0.0000000), wk =   0.2222222
        k(    6) = (   0.0000000   0.0000000   0.0000000), wk =   0.1111111
        k(    7) = (   0.0000000   0.0509936   0.0000000), wk =   0.2222222
        k(    8) = (   0.0441617   0.0254968   0.0000000), wk =   0.2222222
        k(    9) = (   0.0441617   0.0764904   0.0000000), wk =   0.2222222
        k(   10) = (   0.0441617  -0.0254968   0.0000000), wk =   0.2222222

     Largest allocated arrays     est. size (Mb)     dimensions
     Largest temporary arrays     est. size (Mb)     dimensions

     Check: negative/imaginary core charge=   -0.000010    0.000000

     Initial potential from superposition of free atoms
     Check: negative starting charge=(component1):   -0.000446
     Check: negative starting charge=(component2):   -0.000213

     starting charge  411.99091, renormalised to  412.00000

     negative rho (up, down):  4.459E-04 2.131E-04

     Adding external electric field

     Computed dipole along edir(3) :
        Dipole               -0.0088 Ry au,         -0.0224 Debye
        Dipole field         -0.0000 Ry au

        Potential amp.        0.0012 Ry
        Total length         38.9923 bohr

[...]

     Starting wfc are  360 randomized atomic wfcs

     Self-consistent Calculation

     iteration #  1     ecut=    44.10 Ry     beta=0.10
     Davidson diagonalization with overlap
     ethr =  1.00E-02,  avg # of iterations =  6.5

[...]

     Magnetic moment per site:
     atom:    1    charge:    3.9481    magn:    1.1270    constr:    0.0000
     atom:    2    charge:    3.9688    magn:    1.1105    constr:    0.0000
     atom:    3    charge:    3.9734    magn:    1.1055    constr:    0.0000
     atom:    4    charge:    3.9379    magn:    1.1335    constr:    0.0000
     atom:    5    charge:    3.9482    magn:    1.1269    constr:    0.0000
     atom:    6    charge:    3.9687    magn:    1.1106    constr:    0.0000
     atom:    7    charge:    3.9738    magn:    1.1055    constr:    0.0000
     atom:    8    charge:    3.9400    magn:    1.1496    constr:    0.0000
     atom:    9    charge:    3.9482    magn:    1.1268    constr:    0.0000
     atom:   10    charge:    3.9687    magn:    1.1104    constr:    0.0000
     atom:   11    charge:    3.9735    magn:    1.1059    constr:    0.0000
     atom:   12    charge:    3.9388    magn:    1.1514    constr:    0.0000
     atom:   13    charge:    3.9480    magn:    1.1270    constr:    0.0000
     atom:   14    charge:    3.9688    magn:    1.1105    constr:    0.0000
     atom:   15    charge:    3.9742    magn:    1.1054    constr:    0.0000
     atom:   16    charge:    3.9377    magn:    1.1361    constr:    0.0000
     atom:   17    charge:    3.9480    magn:    1.1268    constr:    0.0000
     atom:   18    charge:    3.9684    magn:    1.1106    constr:    0.0000
     atom:   19    charge:    3.9738    magn:    1.1057    constr:    0.0000
[...]

     negative rho (up, down):  3.580E-04 3.145E-04
     atom    1 type  1   force =    -0.00023312    0.00027405    0.00450042
     atom    2 type  1   force =     0.00059714    0.00046737   -0.00404560
     atom    3 type  1   force =    -0.00572253   -0.00316973   -0.01637929
     atom    4 type  1   force =     0.01759439    0.07152211    0.03454385
     atom    5 type  1   force =     0.00006916   -0.00028904    0.00451503
     atom    6 type  1   force =     0.00035865    0.00046507   -0.00444580
     atom    7 type  1   force =     0.00051430   -0.00100774   -0.00828997
     atom    8 type  1   force =    -0.01116129    0.03690372    0.05097726
     atom    9 type  1   force =     0.00025564    0.00014209    0.00408021
     atom   10 type  1   force =    -0.00015103    0.00028312   -0.00554604
     atom   11 type  1   force =    -0.00135277    0.00024956   -0.00829373
     atom   12 type  1   force =    -0.00680040    0.06271841    0.03790849
     atom   13 type  1   force =     0.00012738   -0.00013675    0.00405280
     atom   14 type  1   force =    -0.00044328    0.00048243   -0.00443888
     atom   15 type  1   force =     0.00039814   -0.00064421   -0.00895168
     atom   16 type  1   force =    -0.02181132    0.07425292    0.03879024
     atom   17 type  1   force =     0.00008533    0.00001775    0.00446658
     atom   18 type  1   force =    -0.00027986    0.00033688   -0.00588296
     atom   19 type  1   force =     0.00034275   -0.00003419   -0.00796554
     atom   20 type  1   force =    -0.00165102   -0.01018430    0.07167509
     atom   21 type  1   force =    -0.00017800    0.00019655    0.00408952
     atom   22 type  1   force =    -0.00045390   -0.00013785   -0.00490892
     atom   23 type  1   force =     0.00177878   -0.00018722   -0.00818445
     atom   24 type  1   force =    -0.00001651    0.03401156    0.04830461
     atom   25 type  1   force =     0.00016952    0.00016014    0.00456038
     atom   26 type  1   force =    -0.00005902    0.00004246   -0.00558207
     atom   27 type  1   force =     0.00540423   -0.00291066   -0.01517531
     atom   28 type  1   force =     0.00115840    0.03909773    0.00284703
     atom   29 type  1   force =    -0.00017264    0.00001956    0.00450588
     atom   30 type  1   force =    -0.00043922    0.00038878   -0.00477819
     atom   31 type  1   force =     0.00038970   -0.00007882   -0.00733384
     atom   32 type  1   force =    -0.01198258    0.03053062    0.04687378
     atom   33 type  1   force =    -0.00009831   -0.00007661    0.00460853
     atom   34 type  1   force =     0.00016114   -0.00029774   -0.00478172
     atom   35 type  1   force =     0.00003297    0.00579379   -0.01540311
     atom   36 type  1   force =    -0.02715851    0.05284585    0.01820444
     atom   37 type  2   force =    -0.01488843   -0.07126138   -0.02393092
     atom   38 type  2   force =     0.00737869   -0.02717345   -0.03874639
     atom   39 type  2   force =    -0.00810813   -0.06959445   -0.01325848
     atom   40 type  2   force =    -0.00019920   -0.08443787   -0.02437846
     atom   41 type  2   force =     0.04191704   -0.05812132   -0.00474588
     atom   42 type  2   force =     0.03754817   -0.05768828   -0.01995817
     atom   43 type  2   force =    -0.04486585   -0.01241148   -0.03699829
     atom   44 type  2   force =     0.02825654   -0.00573820   -0.03697127
     atom   45 type  3   force =     0.01368887   -0.00562125   -0.05012917

     Total force =     0.287076     Total SCF correction =     0.001338
 !ASE

     Writing output data file calc.save
     Check: negative starting charge=(component1):   -0.000654
     NEW-OLD atomic charge density approx. for the potential

     Check: negative/imaginary core charge=   -0.000009    0.000000
     Check: negative starting charge=(component1):   -0.000648

[...]

     iteration #  1     ecut=    44.10 Ry     beta=0.10
     Davidson diagonalization with overlap
     c_bands:  1 eigenvalues not converged
     c_bands:  2 eigenvalues not converged
     c_bands:  1 eigenvalues not converged
     c_bands:  1 eigenvalues not converged
     ethr =  1.83E-10,  avg # of iterations = 18.5

[...]

     iteration #  1     ecut=    44.10 Ry     beta=0.10
     Davidson diagonalization with overlap
     c_bands:  2 eigenvalues not converged
     c_bands:  2 eigenvalues not converged
     ethr =  2.42E-10,  avg # of iterations = 10.5

[...]

     Total force =     0.022324     Total SCF correction =     0.003089
     SCF correction compared to forces is large: reduce conv_thr to get better values
 !ASE

[...]

     Total force =     0.021038     Total SCF correction =     0.002186
     SCF correction compared to forces is large: reduce conv_thr to get better values
 !ASE

     Writing output data file calc.save
     Check: negative starting charge=(component1):   -0.000656
     NEW-OLD atomic charge density approx. for the potential

     Check: negative/imaginary core charge=   -0.000009    0.000000
     Check: negative starting charge=(component1):   -0.000656

[...]

     Self-consistent Calculation

[...]

     total energy              =   -3903.73244269 Ry
     Harris-Foulkes estimate   =   -3903.73244234 Ry
     estimated scf accuracy    <       0.00000081 Ry

[...]

     iteration # 12     ecut=    44.10 Ry     beta=0.10
     Davidson diagonalization with overlap
     ethr =  1.95E-10,  avg # of iterations =  1.0

     negative rho (up, down):  3.562E-04 3.172E-04

[...]

     Adding external electric field

     Computed dipole along edir(3) :
        Dipole               -1.0064 Ry au,         -2.5579 Debye
        Dipole field         -0.0018 Ry au

        Potential amp.        0.1400 Ry
        Total length         38.9923 bohr

     Magnetic moment per site:
     atom:    1    charge:    3.9716    magn:    0.3818    constr:    0.0000
     atom:    2    charge:    3.9687    magn:    0.3643    constr:    0.0000
     atom:    3    charge:    3.9589    magn:    0.3303    constr:    0.0000
     atom:    4    charge:    3.6256    magn:    0.0159    constr:    0.0000
     atom:    5    charge:    3.9715    magn:    0.3817    constr:    0.0000
     atom:    6    charge:    3.9688    magn:    0.3642    constr:    0.0000
     atom:    7    charge:    3.9607    magn:    0.3225    constr:    0.0000
     atom:    8    charge:    3.8987    magn:    0.0505    constr:    0.0000
     atom:    9    charge:    3.9716    magn:    0.3850    constr:    0.0000
     atom:   10    charge:    3.9687    magn:    0.3645    constr:    0.0000
     atom:   11    charge:    3.9616    magn:    0.3224    constr:    0.0000
     atom:   12    charge:    3.8683    magn:    0.0502    constr:    0.0000
     atom:   13    charge:    3.9715    magn:    0.3852    constr:    0.0000
     atom:   14    charge:    3.9687    magn:    0.3642    constr:    0.0000
     atom:   15    charge:    3.9572    magn:    0.3310    constr:    0.0000
     atom:   16    charge:    3.5952    magn:    0.0159    constr:    0.0000
     atom:   17    charge:    3.9715    magn:    0.3831    constr:    0.0000
     atom:   18    charge:    3.9689    magn:    0.3710    constr:    0.0000
     atom:   19    charge:    3.9634    magn:    0.3317    constr:    0.0000
     atom:   20    charge:    3.6870    magn:    0.0160    constr:    0.0000
     atom:   21    charge:    3.9715    magn:    0.3851    constr:    0.0000
     atom:   22    charge:    3.9687    magn:    0.3643    constr:    0.0000
     atom:   23    charge:    3.9618    magn:    0.3224    constr:    0.0000
     atom:   24    charge:    3.9359    magn:    0.0694    constr:    0.0000
     atom:   25    charge:    3.9716    magn:    0.3817    constr:    0.0000
     atom:   26    charge:    3.9688    magn:    0.3815    constr:    0.0000
     atom:   27    charge:    3.9607    magn:    0.3304    constr:    0.0000
     atom:   28    charge:    3.9388    magn:    0.0715    constr:    0.0000
     atom:   29    charge:    3.9715    magn:    0.3830    constr:    0.0000
     atom:   30    charge:    3.9688    magn:    0.3642    constr:    0.0000
     atom:   31    charge:    3.9609    magn:    0.3316    constr:    0.0000
     atom:   32    charge:    3.8883    magn:    0.0503    constr:    0.0000
     atom:   33    charge:    3.9715    magn:    0.3832    constr:    0.0000
     atom:   34    charge:    3.9688    magn:    0.3644    constr:    0.0000
     atom:   35    charge:    3.9574    magn:    0.3308    constr:    0.0000
     atom:   36    charge:    3.9370    magn:    0.0697    constr:    0.0000
     atom:   37    charge:    1.9713    magn:    0.0106    constr:    0.0000
     atom:   38    charge:    2.0375    magn:    0.0109    constr:    0.0000
     atom:   39    charge:    1.9053    magn:    0.0100    constr:    0.0000
     atom:   40    charge:    1.8806    magn:    0.0061    constr:    0.0000
     atom:   41    charge:    1.8236    magn:    0.0096    constr:    0.0000
     atom:   42    charge:    1.8237    magn:    0.0078    constr:    0.0000
     atom:   43    charge:    2.0077    magn:    0.0113    constr:    0.0000
     atom:   44    charge:    2.0370    magn:    0.0114    constr:    0.0000
     atom:   45    charge:    0.5808    magn:   -0.0040    constr:    0.0000

     End of self-consistent calculation

 ------ SPIN UP ------------

[...]

 ------ SPIN DOWN ----------

[...]

          k = 0.0442-0.0255 0.0000 ( 34862 PWs)   bands (ev):

   -18.0157 -17.5971 -17.2454 -17.1484 -16.7980 -16.7664 -16.6952 -16.5055
    -9.0499  -5.7294  -5.1851  -4.8843  -4.8701  -4.8033  -4.7313  -4.7036
    -4.6453  -4.2445  -4.1266  -3.9814  -3.6965  -3.6917  -3.6365  -3.5669
    -3.1591  -3.1471  -3.0973  -3.0921  -3.0308  -2.9132  -2.8730  -2.7479
    -2.7084  -2.7064  -2.6631  -2.6049  -2.5624  -2.4143  -2.2526  -2.1535
    -2.0473  -1.9628  -1.9619  -1.9022  -1.8905  -1.7656  -1.6671  -1.6604
    -1.6108  -1.4715  -1.4500  -1.3984  -1.3752  -1.3512  -1.1620  -1.1531
    -1.0879  -1.0564  -1.0376  -1.0127  -1.0106  -0.9524  -0.9242  -0.8800
    -0.8217  -0.7909  -0.7649  -0.7588  -0.7342  -0.6106  -0.5993  -0.5874
    -0.5295  -0.5232  -0.5167  -0.4456  -0.4382  -0.3806  -0.3742  -0.3520
    -0.3493  -0.3152  -0.2858  -0.2488  -0.2322  -0.1968  -0.1903  -0.1743
    -0.1312  -0.1264  -0.0763  -0.0225  -0.0116   0.0030   0.0238   0.0439
     0.0875   0.1045   0.1250   0.1646   0.2256   0.2281   0.2404   0.2508
     0.2856   0.3595   0.3616   0.3733   0.3942   0.4905   0.5000   0.5544
     0.5712   0.6098   0.6177   0.6196   0.6424   0.6613   0.6686   0.6954
     0.7106   0.7303   0.7344   0.7700   0.7837   0.8101   0.8330   0.8383
     0.8590   0.8601   0.9227   0.9350   0.9383   0.9452   0.9524   0.9586
     0.9855   1.0178   1.0312   1.0507   1.0621   1.0713   1.0878   1.0937
     1.1849   1.2195   1.2327   1.2367   1.2414   1.2628   1.2721   1.3336
     1.3464   1.3555   1.3661   1.3773   1.3805   1.3969   1.4519   1.5046
     1.5629   1.5782   1.5845   1.6031   1.6070   1.6120   1.6487   1.6690
     1.6712   1.7040   1.7442   1.7563   1.7715   1.7968   1.8061   1.8196
     1.8532   1.8557   1.9168   1.9247   2.0184   2.0226   2.0404   2.0499
     2.0851   2.0925   2.1715   2.1784   2.1831   2.1894   2.2396   2.2423
     2.2843   2.3069   2.3219   2.3229   2.3638   2.3683   2.3768   2.4334
     2.4423   2.4663   2.4709   2.5056   2.5099   2.5172   2.5402   2.5413
     2.5611   2.5699   2.5870   2.6106   2.6738   2.6974   2.7032   2.7135
     2.7593   2.7783   2.8282   2.8463   2.8747   2.9570   3.0088   3.1025
     3.1319   3.2132   3.5068   3.6021   3.6835   3.7427   3.7896   4.2085
     4.2194   4.5928   4.6445   4.8697   4.8723   5.2056   5.4621   5.6057
     5.6685   5.7396   5.7744   6.4324   6.4977   7.1641   7.3008   7.3215
     7.6403   8.1955   8.2430   8.2839   8.3715   8.4038   8.6488   8.8421
     8.9325   9.2810   9.2994   9.5370   9.5408   9.5734   9.5974   9.6255
     9.7719   9.9251   9.9945  10.4417  10.4920  10.6024  10.6144  10.6372
    10.6802  10.8716  10.9740  11.0331  11.0730  11.2025  11.2176  11.2549
    11.7584  11.7873  11.8964  11.9817  12.0284  12.0863  12.1040  12.5727
    12.6239  12.6295  12.6400  12.7297  12.8844  12.9463  12.9704  13.0272
    13.0609  13.2199  13.3926  13.4070  13.7421  13.7829  13.8379  13.8429
    13.8899  13.9271

     the Fermi energy is     2.3646 ev

!    total energy              =   -3903.73244262 Ry
     Harris-Foulkes estimate   =   -3903.73244517 Ry
     estimated scf accuracy    <       0.00000041 Ry

     The total energy is the sum of the following terms:

     one-electron contribution =  -26965.54550068 Ry
     hartree contribution      =   13906.07070448 Ry
     xc contribution           =   -1580.31419976 Ry
     ewald contribution        =   10736.20923652 Ry
     electric field correction =       0.00180610 Ry
     smearing contrib. (-TS)   =      -0.15448928 Ry

     total magnetization       =    16.56 Bohr mag/cell
     absolute magnetization    =    19.32 Bohr mag/cell

     convergence has been achieved in  12 iterations

     Forces acting on atoms (Ry/au):

     negative rho (up, down):  3.562E-04 3.172E-04
     atom    1 type  1   force =    -0.00011398    0.00012879    0.00473122
     atom    2 type  1   force =     0.00152745    0.00137396   -0.00388080
     atom    3 type  1   force =     0.00018542   -0.00039892   -0.00025054
     atom    4 type  1   force =    -0.00051041   -0.00034806   -0.00023896
     atom    5 type  1   force =    -0.00000209   -0.00011997    0.00478874
     atom    6 type  1   force =     0.00086345    0.00252143   -0.00389220
     atom    7 type  1   force =     0.00007396   -0.00022101   -0.00047628
     atom    8 type  1   force =     0.00075295   -0.00032541   -0.00005893
     atom    9 type  1   force =     0.00021456    0.00018818    0.00376423
     atom   10 type  1   force =    -0.00034529    0.00091755   -0.00578136
     atom   11 type  1   force =     0.00023232   -0.00036818    0.00022195
     atom   12 type  1   force =     0.00035417   -0.00130636    0.00020326
     atom   13 type  1   force =    -0.00002544   -0.00019778    0.00380358
     atom   14 type  1   force =    -0.00224741    0.00130945   -0.00386452
     atom   15 type  1   force =     0.00038300   -0.00013315   -0.00038456
     atom   16 type  1   force =     0.00030893   -0.00039506   -0.00002268
     atom   17 type  1   force =     0.00003531    0.00007589    0.00452397
     atom   18 type  1   force =    -0.00032410    0.00089455   -0.00336664
     atom   19 type  1   force =     0.00008648   -0.00020218    0.00020286
     atom   20 type  1   force =    -0.00052863   -0.00072068   -0.00072628
     atom   21 type  1   force =    -0.00024392    0.00017698    0.00378978
     atom   22 type  1   force =    -0.00097970   -0.00094760   -0.00373032
     atom   23 type  1   force =     0.00024524    0.00002511    0.00014004
     atom   24 type  1   force =     0.00004975   -0.00178674   -0.00056527
     atom   25 type  1   force =     0.00003733    0.00008530    0.00477822
     atom   26 type  1   force =    -0.00044129    0.00094963   -0.00807553
     atom   27 type  1   force =     0.00005723   -0.00065068   -0.00034616
     atom   28 type  1   force =     0.00042214   -0.00064973    0.00062985
     atom   29 type  1   force =    -0.00014120    0.00003876    0.00453706
     atom   30 type  1   force =    -0.00161547    0.00247398   -0.00384718
     atom   31 type  1   force =     0.00017482   -0.00059262   -0.00031715
     atom   32 type  1   force =     0.00016121   -0.00035754   -0.00030274
     atom   33 type  1   force =    -0.00008901   -0.00006019    0.00451585
     atom   34 type  1   force =     0.00020208   -0.00100002   -0.00374794
     atom   35 type  1   force =    -0.00041448   -0.00032815   -0.00012175
     atom   36 type  1   force =     0.00020770   -0.00023282    0.00030282
     atom   37 type  2   force =    -0.00022778    0.00029526    0.00070173
     atom   38 type  2   force =    -0.00016918    0.00061384    0.00033384
     atom   39 type  2   force =    -0.00043107    0.00011236    0.00063962
     atom   40 type  2   force =     0.00096855    0.00015521    0.00054575
     atom   41 type  2   force =     0.00031594   -0.00012767    0.00002549
     atom   42 type  2   force =     0.00117263   -0.00027337    0.00066663
     atom   43 type  2   force =    -0.00031426   -0.00016792    0.00001126
     atom   44 type  2   force =    -0.00035624   -0.00040428   -0.00023986
     atom   45 type  3   force =     0.00048833   -0.00002016    0.00037988

     Total force =     0.020529     Total SCF correction =     0.001915
 !ASE

     Writing output data file calc.save

     General routines

     Parallel routines

   This run was terminated on:   2: 1: 9  19Mar2017

   JOB DONE.