     Program PWSCF v.5.1rc2 (svn rev. ) starts on 24Feb2018 at  4:45: 1

     Current dimensions of program PWSCF are:
     Max number of different atomic species (ntypx) = 10
     Max number of k-points (npk) =  40000
     Max angular momentum in pseudopotentials (lmaxx) =  3
     Presently no symmetry can be used with electric field

     IMPORTANT: XC functional enforced from input :
     Exchange-correlation      = RPBE ( 1  4 28  4 0)
     Any further DFT definition will be discarded
     Please, verify this is what you really want

     Subspace diagonalization in iterative solution of the eigenvalue problem:
     a serial algorithm will be used

     Generating pointlists ...
     new r_m :   0.4125 (alat units)  0.7795 (a.u.) for type    1
     new r_m :   0.4125 (alat units)  0.7795 (a.u.) for type    2

     bravais-lattice index     =            0
     lattice parameter (alat)  =       1.8897  a.u.
     unit-cell volume          =   10312.9744 (a.u.)^3
     number of atoms/cell      =           37
     number of atomic types    =            2
     number of electrons       =       330.00
     number of Kohn-Sham states=          265
     kinetic-energy cutoff     =      44.0992  Ry
     charge density cutoff     =     440.9919  Ry
     convergence threshold     =      7.3E-07
     mixing beta               =       0.1000
     number of iterations used =           10  plain     mixing
     Exchange-correlation      = RPBE ( 1  4 28  4 0)
     nstep                     =           50

     celldm(1)=   1.889726  celldm(2)=   0.000000  celldm(3)=   0.000000
     celldm(4)=   0.000000  celldm(5)=   0.000000  celldm(6)=   0.000000

     crystal axes: (cart. coord. in units of alat)
               a(1) = (  13.134537   0.000000   0.000000 )
               a(2) = (  -4.378179   6.191680   0.000000 )
               a(3) = (   0.000000   0.000000  18.791614 )

     reciprocal axes: (cart. coord. in units 2 pi/alat)
               b(1) = (  0.076135  0.053836  0.000000 )
               b(2) = (  0.000000  0.161507  0.000000 )
               b(3) = (  0.000000  0.000000  0.053215 )

     PseudoPot. # 1 for Co read from file:
     /home/alatimer/bin/psp/esp_psp_w_gbrvRu/Co.UPF
     MD5 check sum: f36dda9fe147c5f42efc2a4f7ec0da3d
     Pseudo is Ultrasoft + core correction, Zval =  9.0
     Generated by new atomic code, or converted to UPF format
     Using radial grid of  937 points,  3 beta functions with:
                l(1) =   1
                l(2) =   2
                l(3) =   2
     Q(r) pseudized with  8 coefficients,  rinner =    1.000   1.000   1.000
                                                       1.000   1.000

     PseudoPot. # 2 for  O read from file:
     /home/alatimer/bin/psp/esp_psp_w_gbrvRu/O.UPF
     MD5 check sum: e057bbcf3229fb5d8c36c0c92f9568b4
     Pseudo is Ultrasoft + core correction, Zval =  6.0
     Generated using "atomic" code by A. Dal Corso  v.5.0.2 svn rev. 9415
     Using radial grid of 1095 points,  4 beta functions with:
                l(1) =   0
                l(2) =   0
                l(3) =   1
                l(4) =   1
     Q(r) pseudized with 0 coefficients

     atomic species   valence    mass     pseudopotential
        Co1            9.00    58.93320     Co( 1.00)
        O1             6.00    15.99940      O( 1.00)

     Starting magnetic structure
     atomic species   magnetization
        Co1          0.444
        O1           0.667

     No symmetry found

   Cartesian axes

     site n.     atom                  positions (alat units)
         1           Co1 tau(   1) = (   0.0000000   0.0000000   7.5000000  )
         2           Co1 tau(   2) = (   2.1890894   0.0000000   8.7638714  )
         3           Co1 tau(   3) = (   0.0000000   0.0000000  10.0277427  )
         4           Co1 tau(   4) = (   2.1890894   0.0000000  11.2916141  )
         5           Co1 tau(   5) = (  -1.4593930   2.0638933   7.5000000  )
         6           Co1 tau(   6) = (   0.7296965   2.0638933   8.7638714  )
         7           Co1 tau(   7) = (  -1.4593930   2.0638933  10.0277427  )
         8           Co1 tau(   8) = (   0.7296965   2.0638933  11.2916141  )
         9           Co1 tau(   9) = (  -2.9187859   4.1277866   7.5000000  )
        10           Co1 tau(  10) = (  -0.7296965   4.1277866   8.7638714  )
        11           Co1 tau(  11) = (  -2.9187859   4.1277866  10.0277427  )
        12           Co1 tau(  12) = (  -0.7296965   4.1277866  11.2916141  )
        13           Co1 tau(  13) = (   4.3781789   0.0000000   7.5000000  )
        14           Co1 tau(  14) = (   6.5672683   0.0000000   8.7638714  )
        15           Co1 tau(  15) = (   4.3781789   0.0000000  10.0277427  )
        16           Co1 tau(  16) = (   6.5672683   0.0000000  11.2916141  )
        17           Co1 tau(  17) = (   2.9187859   2.0638933   7.5000000  )
        18           Co1 tau(  18) = (   5.1078753   2.0638933   8.7638714  )
        19           Co1 tau(  19) = (   2.9187859   2.0638933  10.0277427  )
        20           Co1 tau(  20) = (   5.1078753   2.0638933  11.2916141  )
        21           Co1 tau(  21) = (   1.4593930   4.1277866   7.5000000  )
        22           Co1 tau(  22) = (   3.6484824   4.1277866   8.7638714  )
        23           Co1 tau(  23) = (   1.4593930   4.1277866  10.0277427  )
        24           Co1 tau(  24) = (   3.6484824   4.1277866  11.2916141  )
        25           Co1 tau(  25) = (   8.7563577   0.0000000   7.5000000  )
        26           Co1 tau(  26) = (  10.9454471   0.0000000   8.7638714  )
        27           Co1 tau(  27) = (   8.7563577   0.0000000  10.0277427  )
        28           Co1 tau(  28) = (  10.9454471   0.0000000  11.2916141  )
        29           Co1 tau(  29) = (   7.2969648   2.0638933   7.5000000  )
        30           Co1 tau(  30) = (   9.4860542   2.0638933   8.7638714  )
        31           Co1 tau(  31) = (   7.2969648   2.0638933  10.0277427  )
        32           Co1 tau(  32) = (   9.4860542   2.0638933  11.2916141  )
        33           Co1 tau(  33) = (   5.8375718   4.1277866   7.5000000  )
        34           Co1 tau(  34) = (   8.0266612   4.1277866   8.7638714  )
        35           Co1 tau(  35) = (   5.8375718   4.1277866  10.0277427  )
        36           Co1 tau(  36) = (   8.0266612   4.1277866  11.2916141  )
        37           O1  tau(  37) = (   1.4593930   1.0319467  12.6916141  )

     number of k points=    10  Fermi-Dirac smearing, width (Ry)=  0.0073
                       cart. coord. in units 2pi/alat
        k(    1) = (   0.0000000   0.0000000   0.0000000), wk =   0.1111111
        k(    2) = (   0.0000000   0.0538357   0.0000000), wk =   0.2222222
        k(    3) = (   0.0253784   0.0179452   0.0000000), wk =   0.2222222
        k(    4) = (   0.0253784   0.0717809   0.0000000), wk =   0.2222222
        k(    5) = (   0.0253784  -0.0358905   0.0000000), wk =   0.2222222
        k(    6) = (   0.0000000   0.0000000   0.0000000), wk =   0.1111111
        k(    7) = (   0.0000000   0.0538357   0.0000000), wk =   0.2222222
        k(    8) = (   0.0253784   0.0179452   0.0000000), wk =   0.2222222
        k(    9) = (   0.0253784   0.0717809   0.0000000), wk =   0.2222222
        k(   10) = (   0.0253784  -0.0358905   0.0000000), wk =   0.2222222

     Largest allocated arrays     est. size (Mb)     dimensions
     Largest temporary arrays     est. size (Mb)     dimensions

     Check: negative/imaginary core charge=   -0.000003    0.000000

     Initial potential from superposition of free atoms
     Check: negative starting charge=(component1):   -0.002791
     Check: negative starting charge=(component2):   -0.001075

     starting charge  329.99032, renormalised to  330.00000

     negative rho (up, down):  2.791E-03 1.075E-03

     Adding external electric field

     Computed dipole along edir(3) :
        Dipole               -0.0011 Ry au,         -0.0028 Debye
        Dipole field         -0.0000 Ry au

        Potential amp.        0.0001 Ry
        Total length         34.6232 bohr

[...]

     Starting wfc are  328 randomized atomic wfcs

     Self-consistent Calculation

     iteration #  1     ecut=    44.10 Ry     beta=0.10
     Davidson diagonalization with overlap
     ethr =  1.00E-02,  avg # of iterations =  7.1

[...]

     Magnetic moment per site:
     atom:    1    charge:    3.1927    magn:    1.4060    constr:    0.0000
     atom:    2    charge:    3.2427    magn:    1.3582    constr:    0.0000
     atom:    3    charge:    3.2409    magn:    1.3615    constr:    0.0000
     atom:    4    charge:    3.2012    magn:    1.3989    constr:    0.0000
     atom:    5    charge:    3.1925    magn:    1.4058    constr:    0.0000
     atom:    6    charge:    3.2427    magn:    1.3582    constr:    0.0000
     atom:    7    charge:    3.2416    magn:    1.3597    constr:    0.0000
     atom:    8    charge:    3.2012    magn:    1.3989    constr:    0.0000
     atom:    9    charge:    3.1925    magn:    1.4058    constr:    0.0000
     atom:   10    charge:    3.2412    magn:    1.3606    constr:    0.0000
     atom:   11    charge:    3.2416    magn:    1.3597    constr:    0.0000
     atom:   12    charge:    3.1942    magn:    1.4045    constr:    0.0000
     atom:   13    charge:    3.1925    magn:    1.4058    constr:    0.0000
     atom:   14    charge:    3.2410    magn:    1.3602    constr:    0.0000
     atom:   15    charge:    3.2416    magn:    1.3597    constr:    0.0000
     atom:   16    charge:    3.1920    magn:    1.4061    constr:    0.0000
     atom:   17    charge:    3.1927    magn:    1.4060    constr:    0.0000
     atom:   18    charge:    3.2411    magn:    1.3602    constr:    0.0000
     atom:   19    charge:    3.2409    magn:    1.3616    constr:    0.0000
     atom:   20    charge:    3.1922    magn:    1.4060    constr:    0.0000
     atom:   21    charge:    3.1925    magn:    1.4058    constr:    0.0000
     atom:   22    charge:    3.2411    magn:    1.3602    constr:    0.0000
     atom:   23    charge:    3.2416    magn:    1.3597    constr:    0.0000
     atom:   24    charge:    3.1922    magn:    1.4060    constr:    0.0000
     atom:   25    charge:    3.1925    magn:    1.4058    constr:    0.0000
     atom:   26    charge:    3.2411    magn:    1.3602    constr:    0.0000
     atom:   27    charge:    3.2411    magn:    1.3602    constr:    0.0000
     atom:   28    charge:    3.1922    magn:    1.4060    constr:    0.0000
     atom:   29    charge:    3.1925    magn:    1.4058    constr:    0.0000
     atom:   30    charge:    3.2410    magn:    1.3602    constr:    0.0000
     atom:   31    charge:    3.2411    magn:    1.3601    constr:    0.0000
     atom:   32    charge:    3.1920    magn:    1.4061    constr:    0.0000
     atom:   33    charge:    3.1922    magn:    1.4060    constr:    0.0000
     atom:   34    charge:    3.2411    magn:    1.3602    constr:    0.0000
     atom:   35    charge:    3.2413    magn:    1.3600    constr:    0.0000
     atom:   36    charge:    3.1922    magn:    1.4060    constr:    0.0000
[...]
    -3.3996  -3.3940  -3.3513  -3.3296  -3.3112  -3.2920  -3.2901  -3.2893
    -3.2818  -3.2561  -3.2065  -3.1659  -3.0821  -3.0014  -2.9854  -2.9651
    -2.9505  -2.9396  -2.9035  -2.8774  -2.8756  -2.8754  -2.8349  -2.7893
    -2.7893  -2.7463  -2.6657  -2.6026  -2.6016  -2.5768  -2.5551  -2.5385
    -2.5250  -2.5238  -2.5116  -2.5078  -2.4873  -2.4721  -2.4569  -2.4567
    -2.4565  -2.4498  -2.4321  -2.4072  -2.3676  -2.3214  -2.3108  -2.2889
    -2.2735  -2.2459  -2.2132  -2.1975  -2.1925  -2.1791  -2.1745  -2.1649
    -2.1504  -2.1487  -2.1453  -2.1293  -2.1261  -2.1063  -2.0822  -2.0535
    -2.0105  -2.0008  -1.9956  -1.9418  -1.9221  -1.8651  -1.8648  -1.8204
    -1.8031  -1.7989  -1.7759  -1.7416  -1.7193  -1.7125  -1.6213  -1.6185
    -1.6164  -1.6152  -1.6099  -1.5577  -1.5536  -1.5526  -1.5311  -1.5159
    -1.4978  -1.4827  -1.4801  -1.4387  -1.4005  -1.3985  -1.3894  -1.3853
    -1.3789  -1.3571  -1.3510  -1.3379  -1.3209  -1.3134  -1.2982  -1.2975
    -1.2962  -1.2899  -1.2683  -1.2665  -1.2654  -1.2611  -1.2571  -1.2532
    -1.2405  -1.1886  -1.1610  -1.1164  -1.1095  -1.1081  -1.0962  -1.0772
    -1.0767  -1.0678  -1.0260  -1.0019  -0.9791  -0.9662  -0.9428  -0.9045
    -0.8898  -0.8814  -0.8659  -0.8541  -0.8531  -0.8498  -0.8439  -0.8331
    -0.8231  -0.7806  -0.7712  -0.7689  -0.7615  -0.7380  -0.7304  -0.7236
    -0.7168  -0.7119  -0.7031  -0.6973  -0.6783  -0.6348  -0.5969  -0.5927
    -0.5911  -0.5706  -0.5595  -0.5271  -0.5268  -0.5133  -0.5022  -0.4788
    -0.4571  -0.3508  -0.3401  -0.3380   0.0024   0.0780   0.2441   0.4228
     0.4234   0.9757   1.0820   1.4019   1.4186   1.5327   1.8410   2.4514
     2.5461   2.6399   2.6744   2.8202   2.8629   2.8715   2.9068   2.9309
     3.1162   3.4983   3.8391   3.8484   4.1984   4.2241   4.3962   4.6665
     5.0451   5.1370   5.3456   5.4283   5.4283   5.4399   5.4746   5.4846
     5.5388   5.6083   5.9709   6.0123   6.0972   6.1387   6.2955   6.2959
     6.5511   6.6695   6.7433   6.8357   6.8794   7.1732   7.2626   7.2889
     7.5397   7.5653   7.7863   7.8112   7.8186   7.8213   7.8223   7.8757
     7.9121   7.9607   7.9999   8.0001   8.0279   8.1120   8.1707   8.3674
     8.4369

[...]

 ------ SPIN DOWN ----------

[...]

     the Fermi energy is     0.4359 ev

!    total energy              =   -2918.15804880 Ry
     Harris-Foulkes estimate   =   -2918.15803563 Ry
     estimated scf accuracy    <       0.00000066 Ry

     The total energy is the sum of the following terms:

     one-electron contribution =  -14799.02123361 Ry
     hartree contribution      =    7712.93425699 Ry
     xc contribution           =   -1335.27757944 Ry
     ewald contribution        =    5503.33363071 Ry
     electric field correction =       0.00024670 Ry
     smearing contrib. (-TS)   =      -0.12737016 Ry

[...]

     convergence has been achieved in  51 iterations

     Forces acting on atoms (Ry/au):

     negative rho (up, down):  4.166E-03 1.330E-02
     atom    1 type  1   force =     0.00022281    0.00015525    0.03418053
     atom    2 type  1   force =     0.00013466   -0.00016691   -0.01676565
     atom    3 type  1   force =    -0.00621988   -0.00440391   -0.00347238
     atom    4 type  1   force =    -0.00470638    0.00671501    0.02584707
     atom    5 type  1   force =     0.00014554    0.00020483    0.03251970
     atom    6 type  1   force =    -0.00010684    0.00018511   -0.01676493
     atom    7 type  1   force =    -0.00021950    0.00212746    0.01042074
     atom    8 type  1   force =     0.00475126   -0.00668369    0.02584694
     atom    9 type  1   force =     0.00023852    0.00007989    0.03250441
     atom   10 type  1   force =     0.00001173    0.00000969   -0.01208065
     atom   11 type  1   force =     0.00193407   -0.00090821    0.01042100
     atom   12 type  1   force =     0.00002422    0.00001729   -0.03926593
     atom   13 type  1   force =    -0.00013999   -0.00019812    0.03254518
     atom   14 type  1   force =     0.00094567    0.00066333   -0.01335129
     atom   15 type  1   force =     0.00025117   -0.00210605    0.01043934
     atom   16 type  1   force =     0.00076000    0.00053875   -0.03277151
     atom   17 type  1   force =    -0.00021433   -0.00015215    0.03420411
     atom   18 type  1   force =     0.00007184   -0.00023120   -0.01319764
     atom   19 type  1   force =     0.00624957    0.00442365   -0.00345463
     atom   20 type  1   force =     0.00241097    0.00127751   -0.03255632
     atom   21 type  1   force =    -0.00023149   -0.00007544    0.03252964
     atom   22 type  1   force =    -0.00019560    0.00013599   -0.01319736
     atom   23 type  1   force =    -0.00190356    0.00093185    0.01044049
     atom   24 type  1   force =     0.00200664    0.00183774   -0.03254659
     atom   25 type  1   force =     0.00004735   -0.00008493    0.03237178
     atom   26 type  1   force =    -0.00008442    0.00022114   -0.01323111
     atom   27 type  1   force =     0.00014665   -0.00029442    0.01408580
     atom   28 type  1   force =    -0.00243247   -0.00129779   -0.03256221
     atom   29 type  1   force =    -0.00006141    0.00007662    0.03237126
     atom   30 type  1   force =    -0.00095882   -0.00067035   -0.01338867
     atom   31 type  1   force =    -0.00021039    0.00025037    0.01408571
     atom   32 type  1   force =    -0.00078479   -0.00055622   -0.03278210
     atom   33 type  1   force =    -0.00000571   -0.00000534    0.03220810
     atom   34 type  1   force =     0.00018197   -0.00014567   -0.01323180
     atom   35 type  1   force =    -0.00002881   -0.00002101    0.01417668
     atom   36 type  1   force =    -0.00203283   -0.00185191   -0.03255380
     atom   37 type  2   force =     0.00000258    0.00000182   -0.06402389

     Total force =     0.161844     Total SCF correction =     0.001406
 !ASE

     Writing output data file calc.save
     Check: negative starting charge=(component1):   -0.003865
     NEW-OLD atomic charge density approx. for the potential

     Check: negative/imaginary core charge=   -0.000002    0.000000
     Check: negative starting charge=(component1):   -0.004262

[...]

     Writing output data file calc.save
     Check: negative starting charge=(component1):   -0.004212
     NEW-OLD atomic charge density approx. for the potential

     Check: negative/imaginary core charge=   -0.000003    0.000000
     Check: negative starting charge=(component1):   -0.004210

[...]

     Self-consistent Calculation

[...]

     iteration # 11     ecut=    44.10 Ry     beta=0.10
     Davidson diagonalization with overlap
     c_bands:  1 eigenvalues not converged
     ethr =  1.42E-07,  avg # of iterations =  3.9

[...]

     total energy              =   -2918.20529397 Ry
     Harris-Foulkes estimate   =   -2918.20519800 Ry
     estimated scf accuracy    <       0.00000170 Ry

[...]

     iteration # 31     ecut=    44.10 Ry     beta=0.10
     Davidson diagonalization with overlap
     ethr =  4.92E-10,  avg # of iterations =  2.6

     negative rho (up, down):  4.428E-03 1.332E-02

[...]

     Adding external electric field

     Computed dipole along edir(3) :
        Dipole               -0.4271 Ry au,         -1.0857 Debye
        Dipole field         -0.0005 Ry au

        Potential amp.        0.0360 Ry
        Total length         34.6232 bohr

     Magnetic moment per site:
     atom:    1    charge:    3.2193    magn:    1.0149    constr:    0.0000
     atom:    2    charge:    3.2010    magn:    0.9211    constr:    0.0000
     atom:    3    charge:    3.1733    magn:    0.9475    constr:    0.0000
     atom:    4    charge:    3.1765    magn:    0.9661    constr:    0.0000
     atom:    5    charge:    3.2196    magn:    1.0166    constr:    0.0000
     atom:    6    charge:    3.2010    magn:    0.9212    constr:    0.0000
     atom:    7    charge:    3.1982    magn:    0.9467    constr:    0.0000
     atom:    8    charge:    3.1764    magn:    0.9662    constr:    0.0000
     atom:    9    charge:    3.2196    magn:    1.0166    constr:    0.0000
     atom:   10    charge:    3.2006    magn:    0.9355    constr:    0.0000
     atom:   11    charge:    3.1981    magn:    0.9467    constr:    0.0000
     atom:   12    charge:    2.9508    magn:    0.9400    constr:    0.0000
     atom:   13    charge:    3.2196    magn:    1.0166    constr:    0.0000
     atom:   14    charge:    3.2013    magn:    0.9437    constr:    0.0000
     atom:   15    charge:    3.1983    magn:    0.9468    constr:    0.0000
     atom:   16    charge:    2.9565    magn:    0.9272    constr:    0.0000
     atom:   17    charge:    3.2193    magn:    1.0150    constr:    0.0000
     atom:   18    charge:    3.2010    magn:    0.9373    constr:    0.0000
     atom:   19    charge:    3.1733    magn:    0.9474    constr:    0.0000
     atom:   20    charge:    2.9505    magn:    0.9260    constr:    0.0000
     atom:   21    charge:    3.2196    magn:    1.0166    constr:    0.0000
     atom:   22    charge:    3.2010    magn:    0.9373    constr:    0.0000
     atom:   23    charge:    3.1982    magn:    0.9467    constr:    0.0000
     atom:   24    charge:    2.9501    magn:    0.9259    constr:    0.0000
     atom:   25    charge:    3.2197    magn:    1.0098    constr:    0.0000
     atom:   26    charge:    3.2010    magn:    0.9374    constr:    0.0000
     atom:   27    charge:    3.2002    magn:    0.9285    constr:    0.0000
     atom:   28    charge:    2.9512    magn:    0.9263    constr:    0.0000
     atom:   29    charge:    3.2197    magn:    1.0098    constr:    0.0000
     atom:   30    charge:    3.2014    magn:    0.9438    constr:    0.0000
     atom:   31    charge:    3.2001    magn:    0.9285    constr:    0.0000
     atom:   32    charge:    2.9573    magn:    0.9276    constr:    0.0000
     atom:   33    charge:    3.2197    magn:    1.0128    constr:    0.0000
     atom:   34    charge:    3.2010    magn:    0.9373    constr:    0.0000
     atom:   35    charge:    3.2006    magn:    0.9206    constr:    0.0000
     atom:   36    charge:    2.9508    magn:    0.9262    constr:    0.0000
     atom:   37    charge:    1.8511    magn:    0.1102    constr:    0.0000

     End of self-consistent calculation

 ------ SPIN UP ------------

[...]

 ------ SPIN DOWN ----------

[...]

          k = 0.0254-0.0359 0.0000 ( 51064 PWs)   bands (ev):

   -17.3072  -7.1224  -6.2557  -5.8560  -5.8354  -5.0897  -5.0790  -4.4272
    -4.0778  -3.8616  -3.7364  -3.6014  -3.5993  -3.3943  -3.3219  -3.2809
    -3.2300  -3.1400  -3.0961  -3.0280  -2.9249  -2.8373  -2.7872  -2.7812
    -2.7510  -2.7209  -2.7119  -2.5708  -2.4599  -2.4276  -2.3832  -2.3815
    -2.3423  -2.2687  -2.2099  -2.1989  -2.1765  -2.1531  -2.1316  -2.1156
    -1.9948  -1.9377  -1.9236  -1.8148  -1.8030  -1.7716  -1.7453  -1.7206
    -1.7126  -1.6955  -1.6644  -1.6580  -1.6486  -1.5850  -1.5349  -1.3888
    -1.3604  -1.3145  -1.2959  -1.2358  -1.2228  -1.2060  -1.1722  -1.1658
    -1.1513  -1.1485  -1.1199  -1.0765  -1.0610  -1.0497  -1.0385  -1.0373
    -1.0236  -0.9921  -0.9912  -0.9456  -0.9275  -0.8680  -0.8654  -0.7669
    -0.7316  -0.7165  -0.7041  -0.6714  -0.6460  -0.6243  -0.6003  -0.5885
    -0.5567  -0.5229  -0.5015  -0.4948  -0.4897  -0.4500  -0.4434  -0.4105
    -0.3945  -0.3768  -0.3458  -0.3362  -0.3119  -0.2953  -0.2571  -0.2557
    -0.2284  -0.2121  -0.1986  -0.1837  -0.1504  -0.1295  -0.1180  -0.0825
    -0.0756  -0.0628  -0.0265   0.0028   0.0381   0.0725   0.1009   0.1094
     0.1592   0.1829   0.2185   0.2322   0.2441   0.2778   0.2791   0.2975
     0.2994   0.3762   0.3811   0.3942   0.4056   0.4619   0.4817   0.4821
     0.5370   0.5590   0.5694   0.5973   0.6372   0.6463   0.6853   0.7223
     0.7603   0.7730   0.8226   0.8376   0.8617   0.8755   0.8873   0.8918
     0.8949   0.9046   0.9244   0.9453   0.9764   0.9802   1.0014   1.0243
     1.0422   1.0474   1.0495   1.0578   1.0664   1.1092   1.1340   1.1732
     1.1800   1.2075   1.2119   1.2174   1.2257   1.2269   1.2438   1.2444
     1.2758   1.2930   1.3134   1.3227   1.3527   1.4169   1.4425   1.4521
     1.4692   1.4696   1.4855   1.4877   1.4895   1.5217   1.5378   1.5891
     1.6015   1.6593   1.6843   1.8125   1.9170   1.9303   2.0145   2.1081
     2.1362   2.1920   2.2595   2.3726   2.3782   2.7090   2.9763   3.0077
     3.1462   3.3415   3.4206   3.6450   3.6578   3.7196   3.7617   3.8168
     3.9229   4.0767   4.1008   4.1467   4.4148   4.4551   4.6660   4.7446
     4.9275   5.2576   5.2806   5.3620   5.5312   5.5521   5.5589   5.6386
     5.6567   5.7791   6.1335   6.2894   6.3351   6.3863   6.5118   6.5230
     6.6046   6.8567   6.9701   6.9752   6.9928   7.0166   7.1651   7.2557
     7.5203   7.5466   7.5521   7.6254   7.7099   7.7445   7.8343   7.8734
     8.2397   8.2953   8.3572   8.3850   8.4251   8.5241   8.5268   8.6137
     8.8876

     the Fermi energy is     0.4482 ev

!    total energy              =   -2918.20581715 Ry
     Harris-Foulkes estimate   =   -2918.20529644 Ry
     estimated scf accuracy    <       0.00000050 Ry

     The total energy is the sum of the following terms:

     one-electron contribution =  -15118.11997336 Ry
     hartree contribution      =    7872.34867093 Ry
     xc contribution           =   -1335.75834622 Ry
     ewald contribution        =    5663.44426027 Ry
     electric field correction =       0.00022230 Ry
     smearing contrib. (-TS)   =      -0.12065108 Ry

     total magnetization       =    63.81 Bohr mag/cell
     absolute magnetization    =    70.19 Bohr mag/cell

     convergence has been achieved in  31 iterations

     Forces acting on atoms (Ry/au):

     negative rho (up, down):  4.428E-03 1.332E-02
     atom    1 type  1   force =     0.00114938    0.00084407    0.02838629
     atom    2 type  1   force =     0.00092289   -0.00125489   -0.02370296
     atom    3 type  1   force =    -0.00066073   -0.00048181   -0.00012349
     atom    4 type  1   force =     0.00012699   -0.00020648   -0.00075196
     atom    5 type  1   force =     0.00025720    0.00031368    0.02996722
     atom    6 type  1   force =    -0.00086684    0.00125518   -0.02372834
     atom    7 type  1   force =    -0.00022578    0.00038881   -0.00035929
     atom    8 type  1   force =    -0.00011194    0.00014579   -0.00069749
     atom    9 type  1   force =     0.00034794    0.00015499    0.02994818
     atom   10 type  1   force =    -0.00001821   -0.00000396   -0.03157786
     atom   11 type  1   force =     0.00027284   -0.00033713   -0.00035689
     atom   12 type  1   force =    -0.00000817    0.00000280   -0.00001273
     atom   13 type  1   force =    -0.00035803   -0.00031251    0.03011382
     atom   14 type  1   force =     0.00039934    0.00027996   -0.03011732
     atom   15 type  1   force =     0.00009461   -0.00047037   -0.00044898
     atom   16 type  1   force =     0.00003166    0.00003594    0.00058873
     atom   17 type  1   force =    -0.00121385   -0.00082507    0.02846228
     atom   18 type  1   force =     0.00125157   -0.00064794   -0.03117014
     atom   19 type  1   force =     0.00053691    0.00037944   -0.00020276
     atom   20 type  1   force =     0.00002081   -0.00020009    0.00045194
     atom   21 type  1   force =    -0.00037842   -0.00023642    0.03004639
     atom   22 type  1   force =    -0.00020975    0.00138430   -0.03120637
     atom   23 type  1   force =    -0.00040700    0.00025981   -0.00043090
     atom   24 type  1   force =    -0.00019202    0.00009046    0.00044912
     atom   25 type  1   force =    -0.00008795    0.00024695    0.02943276
     atom   26 type  1   force =    -0.00125046    0.00063981   -0.03110721
     atom   27 type  1   force =     0.00018992    0.00000594    0.00049778
     atom   28 type  1   force =    -0.00002464    0.00019227    0.00027703
     atom   29 type  1   force =     0.00021441   -0.00016973    0.02948893
     atom   30 type  1   force =    -0.00038748   -0.00026703   -0.03008199
     atom   31 type  1   force =     0.00007400    0.00018294    0.00048652
     atom   32 type  1   force =    -0.00003547   -0.00001859    0.00040313
     atom   33 type  1   force =     0.00002890    0.00003737    0.02854214
     atom   34 type  1   force =     0.00021524   -0.00142380   -0.03111785
     atom   35 type  1   force =     0.00013758    0.00009115    0.00040420
     atom   36 type  1   force =     0.00018441   -0.00010755    0.00027112
     atom   37 type  2   force =    -0.00001986    0.00003171   -0.00102307

     Total force =     0.124946     Total SCF correction =     0.002408
 !ASE

     Writing output data file calc.save

     General routines

     Parallel routines

   This run was terminated on:  12:31:16  24Feb2018

   JOB DONE.