     Program PWSCF v.5.1rc2 (svn rev. ) starts on 10Mar2017 at 11:22:47

     Current dimensions of program PWSCF are:
     Max number of different atomic species (ntypx) = 10
     Max number of k-points (npk) =  40000
     Max angular momentum in pseudopotentials (lmaxx) =  3

     IMPORTANT: XC functional enforced from input :
     Exchange-correlation      = RPBE ( 1  4 28  4 0)
     Any further DFT definition will be discarded
     Please, verify this is what you really want

               file Ni.UPF: wavefunction(s)  3D renormalized

     Subspace diagonalization in iterative solution of the eigenvalue problem:
     a serial algorithm will be used

     Generating pointlists ...
     new r_m :   0.4125 (alat units)  0.7795 (a.u.) for type    1

     bravais-lattice index     =            0
     lattice parameter (alat)  =       1.8897  a.u.
     unit-cell volume          =      76.0003 (a.u.)^3
     number of atoms/cell      =            1
     number of atomic types    =            1
     number of electrons       =        10.00
     number of Kohn-Sham states=           15
     kinetic-energy cutoff     =      44.0992  Ry
     charge density cutoff     =     440.9919  Ry
     convergence threshold     =      7.3E-07
     mixing beta               =       0.1000
     number of iterations used =           10  plain     mixing
     Exchange-correlation      = RPBE ( 1  4 28  4 0)
     nstep                     =           50

     celldm(1)=   1.889726  celldm(2)=   0.000000  celldm(3)=   0.000000
     celldm(4)=   0.000000  celldm(5)=   0.000000  celldm(6)=   0.000000

     crystal axes: (cart. coord. in units of alat)
               a(1) = (   0.000000   1.779083   1.779083 )
               a(2) = (   1.779083   0.000000   1.779083 )
               a(3) = (   1.779083   1.779083   0.000000 )

     reciprocal axes: (cart. coord. in units 2 pi/alat)
               b(1) = ( -0.281044  0.281044  0.281044 )
               b(2) = (  0.281044 -0.281044  0.281044 )
               b(3) = (  0.281044  0.281044 -0.281044 )

     PseudoPot. # 1 for Ni read from file:
     /home/vossj/suncat/esdld/psp/Ni.UPF
     MD5 check sum: 8b2449ee0060d9c33484ccd47bb60870
     Pseudo is Ultrasoft + core correction, Zval = 10.0
     Generated using "atomic" code by A. Dal Corso  v.5.0.2 svn rev. 9415
     Using radial grid of 1195 points,  6 beta functions with:
                l(1) =   0
                l(2) =   0
                l(3) =   1
                l(4) =   1
                l(5) =   2
                l(6) =   2
     Q(r) pseudized with 0 coefficients

     atomic species   valence    mass     pseudopotential
        Ni1           10.00    58.69340     Ni( 1.00)

     Starting magnetic structure
     atomic species   magnetization
        Ni1          0.200

     48 Sym. Ops., with inversion, found

   Cartesian axes

     site n.     atom                  positions (alat units)
         1           Ni1 tau(   1) = (   0.0000000   0.0000000   0.0000000  )

     number of k points=     6  Fermi-Dirac smearing, width (Ry)=  0.0073
                       cart. coord. in units 2pi/alat
        k(    1) = (   0.0000000   0.0000000   0.0000000), wk =   0.1250000
        k(    2) = (  -0.1405218  -0.1405218   0.1405218), wk =   0.5000000
        k(    3) = (  -0.2810436   0.0000000   0.0000000), wk =   0.3750000
        k(    4) = (   0.0000000   0.0000000   0.0000000), wk =   0.1250000
        k(    5) = (  -0.1405218  -0.1405218   0.1405218), wk =   0.5000000
        k(    6) = (  -0.2810436   0.0000000   0.0000000), wk =   0.3750000

     Largest allocated arrays     est. size (Mb)     dimensions
     Largest temporary arrays     est. size (Mb)     dimensions

     Initial potential from superposition of free atoms

     starting charge    9.99975, renormalised to   10.00000
     Starting wfc are    9 randomized atomic wfcs +    6 random wfc

     Self-consistent Calculation

     iteration #  1     ecut=    44.10 Ry     beta=0.10
     Davidson diagonalization with overlap
     ethr =  1.00E-02,  avg # of iterations =  6.5

     Threshold (ethr) on eigenvalues was too large:
     Diagonalizing with lowered threshold

     Davidson diagonalization with overlap
     ethr =  2.05E-04,  avg # of iterations =  2.5

     Magnetic moment per site:
     atom:    1    charge:    3.9662    magn:    0.7746    constr:    0.0000

     total energy              =    -100.48764773 Ry
     Harris-Foulkes estimate   =    -100.48793803 Ry
     estimated scf accuracy    <       0.02036292 Ry

     total magnetization       =     1.25 Bohr mag/cell
     absolute magnetization    =     1.25 Bohr mag/cell

[...]

     End of self-consistent calculation

 ------ SPIN UP ------------

          k = 0.0000 0.0000 0.0000 (   339 PWs)   bands (ev):

     4.2113  10.1749  10.1749  10.1749  11.3123  11.3123  36.8013  40.2501
    40.2501  40.2501  42.4186  42.4186  42.4186  46.0202  52.0253

          k =-0.1405-0.1405 0.1405 (   368 PWs)   bands (ev):

[...]

 ------ SPIN DOWN ----------

[...]

     the Fermi energy is    13.3031 ev

!    total energy              =    -100.49951584 Ry
     Harris-Foulkes estimate   =    -100.49951564 Ry
     estimated scf accuracy    <       0.00000014 Ry

     The total energy is the sum of the following terms:

     one-electron contribution =     -11.01948639 Ry
     hartree contribution      =      20.54775454 Ry
     xc contribution           =     -41.83246277 Ry
     ewald contribution        =     -68.18693061 Ry
     smearing contrib. (-TS)   =      -0.00839061 Ry

[...]

     convergence has been achieved in   9 iterations

     Forces acting on atoms (Ry/au):

     atom    1 type  1   force =     0.00000000    0.00000000    0.00000000

     Total force =     0.000000     Total SCF correction =     0.000000
 !ASE
  python dir          : /home/vossj/suncat/lib/python2.7/site-packages/espresso
  espresso dir        : /home/vossj/suncat/esdld/espresso-dynpy-beef/bin
  pseudo dir          : /home/vossj/suncat/esdld/psp
  ase-espresso py git : ffa2778-git

     Writing output data file calc.save

     General routines

     Parallel routines

   This run was terminated on:  11:22:50  10Mar2017

   JOB DONE.
WARNING: It appears that your OpenFabrics subsystem is configured to only
run with erratic performance, hang, and/or crash.

This may be caused by your OpenFabrics vendor limiting the amount of
relevant Linux kernel module parameters that control how much physical

parameters:

  Local host:              sherlock-ln03

[...]

   This run was terminated on:  11:23: 3  10Mar2017

[...]

     Program PWSCF v.5.1rc2 (svn rev. ) starts on 10Mar2017 at 11:23: 3

[...]

     Program PWSCF v.5.1rc2 (svn rev. ) starts on 10Mar2017 at 11:23:44

[...]

     number of k points=    94  Fermi-Dirac smearing, width (Ry)=  0.0073
                       cart. coord. in units 2pi/alat
        k(    1) = (   0.0000000   0.0000000   0.0000000), wk =   0.0010000
        k(    2) = (   0.0281044   0.0281044  -0.0281044), wk =   0.0080000
        k(    3) = (   0.0562087   0.0562087  -0.0562087), wk =   0.0080000
        k(    4) = (   0.0843131   0.0843131  -0.0843131), wk =   0.0080000
        k(    5) = (   0.1124174   0.1124174  -0.1124174), wk =   0.0080000
        k(    6) = (  -0.1405218  -0.1405218   0.1405218), wk =   0.0040000
        k(    7) = (   0.0562087   0.0000000   0.0000000), wk =   0.0060000
        k(    8) = (   0.0843131   0.0281044  -0.0281044), wk =   0.0240000
        k(    9) = (   0.1124174   0.0562087  -0.0562087), wk =   0.0240000
        k(   10) = (   0.1405218   0.0843131  -0.0843131), wk =   0.0240000
        k(   11) = (  -0.1124174  -0.1686262   0.1686262), wk =   0.0240000
        k(   12) = (  -0.0843131  -0.1405218   0.1405218), wk =   0.0240000
        k(   13) = (  -0.0562087  -0.1124174   0.1124174), wk =   0.0240000
        k(   14) = (  -0.0281044  -0.0843131   0.0843131), wk =   0.0240000
        k(   15) = (   0.0000000  -0.0562087   0.0562087), wk =   0.0120000
        k(   16) = (   0.1124174   0.0000000   0.0000000), wk =   0.0060000
        k(   17) = (   0.1405218   0.0281044  -0.0281044), wk =   0.0240000
        k(   18) = (   0.1686262   0.0562087  -0.0562087), wk =   0.0240000
        k(   19) = (  -0.0843131  -0.1967305   0.1967305), wk =   0.0240000
        k(   20) = (  -0.0562087  -0.1686262   0.1686262), wk =   0.0240000
        k(   21) = (  -0.0281044  -0.1405218   0.1405218), wk =   0.0240000
        k(   22) = (   0.0000000  -0.1124174   0.1124174), wk =   0.0120000
        k(   23) = (   0.1686262   0.0000000   0.0000000), wk =   0.0060000
        k(   24) = (   0.1967305   0.0281044  -0.0281044), wk =   0.0240000
        k(   25) = (  -0.0562087  -0.2248349   0.2248349), wk =   0.0240000
        k(   26) = (  -0.0281044  -0.1967305   0.1967305), wk =   0.0240000
        k(   27) = (  -0.0000000  -0.1686262   0.1686262), wk =   0.0120000
        k(   28) = (   0.2248349   0.0000000   0.0000000), wk =   0.0060000
        k(   29) = (  -0.0281044  -0.2529393   0.2529393), wk =   0.0240000
        k(   30) = (   0.0000000  -0.2248349   0.2248349), wk =   0.0120000
        k(   31) = (  -0.2810436   0.0000000   0.0000000), wk =   0.0030000
        k(   32) = (   0.1124174   0.0562087   0.0000000), wk =   0.0240000
        k(   33) = (   0.1405218   0.0843131  -0.0281044), wk =   0.0480000
        k(   34) = (  -0.1124174  -0.1686262   0.2248349), wk =   0.0480000
        k(   35) = (  -0.0843131  -0.1405218   0.1967305), wk =   0.0240000
        k(   36) = (   0.1686262   0.0562087  -0.0000000), wk =   0.0240000
        k(   37) = (  -0.0843131  -0.1967305   0.2529393), wk =   0.0480000
        k(   38) = (  -0.0562087  -0.1686262   0.2248349), wk =   0.0480000
        k(   39) = (  -0.0281044  -0.1405218   0.1967305), wk =   0.0480000
        k(   40) = (   0.0000000  -0.1124174   0.1686262), wk =   0.0240000
        k(   41) = (  -0.0562087  -0.2248349   0.2810436), wk =   0.0240000
        k(   42) = (  -0.0281044  -0.1967305   0.2529393), wk =   0.0480000
        k(   43) = (   0.0000000  -0.1686262   0.2248349), wk =   0.0240000
        k(   44) = (  -0.2810436   0.0562087   0.0000000), wk =   0.0120000
        k(   45) = (  -0.0562087  -0.1686262   0.2810436), wk =   0.0240000
        k(   46) = (  -0.0281044  -0.1405218   0.2529393), wk =   0.0240000
        k(   47) = (  -0.2810436   0.1124174   0.0000000), wk =   0.0120000
        k(   48) = (   0.0000000   0.0000000   0.0000000), wk =   0.0010000
        k(   49) = (   0.0281044   0.0281044  -0.0281044), wk =   0.0080000
        k(   50) = (   0.0562087   0.0562087  -0.0562087), wk =   0.0080000
        k(   51) = (   0.0843131   0.0843131  -0.0843131), wk =   0.0080000
        k(   52) = (   0.1124174   0.1124174  -0.1124174), wk =   0.0080000
        k(   53) = (  -0.1405218  -0.1405218   0.1405218), wk =   0.0040000
        k(   54) = (   0.0562087   0.0000000   0.0000000), wk =   0.0060000
        k(   55) = (   0.0843131   0.0281044  -0.0281044), wk =   0.0240000
        k(   56) = (   0.1124174   0.0562087  -0.0562087), wk =   0.0240000
        k(   57) = (   0.1405218   0.0843131  -0.0843131), wk =   0.0240000
        k(   58) = (  -0.1124174  -0.1686262   0.1686262), wk =   0.0240000
        k(   59) = (  -0.0843131  -0.1405218   0.1405218), wk =   0.0240000
        k(   60) = (  -0.0562087  -0.1124174   0.1124174), wk =   0.0240000
[...]
        k(   80) = (   0.1405218   0.0843131  -0.0281044), wk =   0.0480000
        k(   81) = (  -0.1124174  -0.1686262   0.2248349), wk =   0.0480000
        k(   82) = (  -0.0843131  -0.1405218   0.1967305), wk =   0.0240000
        k(   83) = (   0.1686262   0.0562087  -0.0000000), wk =   0.0240000
        k(   84) = (  -0.0843131  -0.1967305   0.2529393), wk =   0.0480000
        k(   85) = (  -0.0562087  -0.1686262   0.2248349), wk =   0.0480000
        k(   86) = (  -0.0281044  -0.1405218   0.1967305), wk =   0.0480000
        k(   87) = (   0.0000000  -0.1124174   0.1686262), wk =   0.0240000
        k(   88) = (  -0.0562087  -0.2248349   0.2810436), wk =   0.0240000
        k(   89) = (  -0.0281044  -0.1967305   0.2529393), wk =   0.0480000
        k(   90) = (   0.0000000  -0.1686262   0.2248349), wk =   0.0240000
        k(   91) = (  -0.2810436   0.0562087   0.0000000), wk =   0.0120000
        k(   92) = (  -0.0562087  -0.1686262   0.2810436), wk =   0.0240000
        k(   93) = (  -0.0281044  -0.1405218   0.2529393), wk =   0.0240000
        k(   94) = (  -0.2810436   0.1124174   0.0000000), wk =   0.0120000

[...]

 ------ SPIN UP ------------

[...]

 ------ SPIN DOWN ----------

[...]

          k = 0.0000-0.1686 0.2248 (   380 PWs)   bands (ev):

[...]

          k =-0.2810 0.1124 0.0000 (   382 PWs)   bands (ev):

     9.8389  10.4163  11.2904  12.6000  13.5629  19.3945  22.3047  22.8119
    24.4095  40.1762  43.3447  46.1788  51.6328  61.7853  63.3461

[...]

     Total force =     0.000000     Total SCF correction =     0.000000
 !ASE
  python dir          : /home/vossj/suncat/lib/python2.7/site-packages/espresso
  espresso dir        : /home/vossj/suncat/esdld/espresso-dynpy-beef/bin
  pseudo dir          : /home/vossj/suncat/esdld/psp
  ase-espresso py git : ffa2778-git

[...]

   This run was terminated on:  11:24: 0  10Mar2017

   JOB DONE.
WARNING: It appears that your OpenFabrics subsystem is configured to only
run with erratic performance, hang, and/or crash.

This may be caused by your OpenFabrics vendor limiting the amount of
relevant Linux kernel module parameters that control how much physical

parameters:

  Local host:              sherlock-ln03

     Program PWSCF v.5.1rc2 (svn rev. ) starts on 10Mar2017 at 11:24: 0

     Current dimensions of program PWSCF are:
     Max number of different atomic species (ntypx) = 10
     Max number of k-points (npk) =  40000
     Max angular momentum in pseudopotentials (lmaxx) =  3

     IMPORTANT: XC functional enforced from input :
     Exchange-correlation      = RPBE ( 1  4 28  4 0)
     Any further DFT definition will be discarded
     Please, verify this is what you really want

               file Ni.UPF: wavefunction(s)  3D renormalized

     Subspace diagonalization in iterative solution of the eigenvalue problem:
     a serial algorithm will be used

     Generating pointlists ...
     new r_m :   0.4125 (alat units)  0.7795 (a.u.) for type    1

     bravais-lattice index     =            0
     lattice parameter (alat)  =       1.8897  a.u.
     unit-cell volume          =      76.0003 (a.u.)^3
     number of atoms/cell      =            1
     number of atomic types    =            1
     number of electrons       =        10.00
     number of Kohn-Sham states=           15
     kinetic-energy cutoff     =      44.0992  Ry
     charge density cutoff     =     440.9919  Ry
     convergence threshold     =      7.3E-07
     mixing beta               =       0.1000
     number of iterations used =           10  plain     mixing
     Exchange-correlation      = RPBE ( 1  4 28  4 0)
     nstep                     =           50

     celldm(1)=   1.889726  celldm(2)=   0.000000  celldm(3)=   0.000000
     celldm(4)=   0.000000  celldm(5)=   0.000000  celldm(6)=   0.000000

     crystal axes: (cart. coord. in units of alat)
               a(1) = (   0.000000   1.779083   1.779083 )
               a(2) = (   1.779083   0.000000   1.779083 )
               a(3) = (   1.779083   1.779083   0.000000 )

     reciprocal axes: (cart. coord. in units 2 pi/alat)
               b(1) = ( -0.281044  0.281044  0.281044 )
               b(2) = (  0.281044 -0.281044  0.281044 )
               b(3) = (  0.281044  0.281044 -0.281044 )

     PseudoPot. # 1 for Ni read from file:
     /home/vossj/suncat/esdld/psp/Ni.UPF
     MD5 check sum: 8b2449ee0060d9c33484ccd47bb60870
     Pseudo is Ultrasoft + core correction, Zval = 10.0
     Generated using "atomic" code by A. Dal Corso  v.5.0.2 svn rev. 9415
     Using radial grid of 1195 points,  6 beta functions with:
                l(1) =   0
                l(2) =   0
                l(3) =   1
                l(4) =   1
                l(5) =   2
                l(6) =   2
     Q(r) pseudized with 0 coefficients

     atomic species   valence    mass     pseudopotential
        Ni1           10.00    58.69340     Ni( 1.00)

     Starting magnetic structure
     atomic species   magnetization
        Ni1          0.200

     48 Sym. Ops., with inversion, found

   Cartesian axes

     site n.     atom                  positions (alat units)
         1           Ni1 tau(   1) = (   0.0000000   0.0000000   0.0000000  )

     number of k points=   112  Fermi-Dirac smearing, width (Ry)=  0.0073

     Number of k-points >= 100: set verbosity='high' to print them.

     Largest allocated arrays     est. size (Mb)     dimensions
     Largest temporary arrays     est. size (Mb)     dimensions

     Initial potential from superposition of free atoms

     starting charge    9.99975, renormalised to   10.00000
     Starting wfc are    9 randomized atomic wfcs +    6 random wfc

     Self-consistent Calculation

[...]

     Threshold (ethr) on eigenvalues was too large:
     Diagonalizing with lowered threshold

     Davidson diagonalization with overlap
     ethr =  2.48E-04,  avg # of iterations =  1.1

[...]

     total energy              =    -100.65713353 Ry
     Harris-Foulkes estimate   =    -100.65712861 Ry
     estimated scf accuracy    <       0.00001394 Ry

[...]

     iteration # 11     ecut=    44.10 Ry     beta=0.10
     Davidson diagonalization with overlap
     ethr =  1.81E-08,  avg # of iterations =  1.2

     Magnetic moment per site:
     atom:    1    charge:    3.9764    magn:    0.3656    constr:    0.0000

     End of self-consistent calculation

     Number of k-points >= 100: set verbosity='high' to print the bands.

     the Fermi energy is    13.1589 ev

!    total energy              =    -100.65713664 Ry
     Harris-Foulkes estimate   =    -100.65713653 Ry
     estimated scf accuracy    <       0.00000008 Ry

     The total energy is the sum of the following terms:

     one-electron contribution =     -11.39827695 Ry
     hartree contribution      =      20.77344593 Ry
     xc contribution           =     -41.84115312 Ry
     ewald contribution        =     -68.18693061 Ry
     smearing contrib. (-TS)   =      -0.00422189 Ry

     total magnetization       =     0.59 Bohr mag/cell
     absolute magnetization    =     0.68 Bohr mag/cell

     convergence has been achieved in  11 iterations

     Forces acting on atoms (Ry/au):

     atom    1 type  1   force =     0.00000000    0.00000000    0.00000000

     Total force =     0.000000     Total SCF correction =     0.000000
 !ASE

     Writing output data file calc.save

     General routines

     Parallel routines

   This run was terminated on:  11:24:21  10Mar2017

   JOB DONE.