     Program PWSCF v.5.1rc2 (svn rev. ) starts on 18Mar2017 at 15:51:47

     Current dimensions of program PWSCF are:
     Max number of different atomic species (ntypx) = 10
     Max number of k-points (npk) =  40000
     Max angular momentum in pseudopotentials (lmaxx) =  3
     Presently no symmetry can be used with electric field

     IMPORTANT: XC functional enforced from input :
     Exchange-correlation      = RPBE ( 1  4 28  4 0)
     Any further DFT definition will be discarded
     Please, verify this is what you really want

               file Ni.UPF: wavefunction(s)  3D renormalized

     Subspace diagonalization in iterative solution of the eigenvalue problem:
     a serial algorithm will be used

     Generating pointlists ...
     new r_m :   0.4125 (alat units)  0.7795 (a.u.) for type    1
     new r_m :   0.4125 (alat units)  0.7795 (a.u.) for type    2

     bravais-lattice index     =            0
     lattice parameter (alat)  =       1.8897  a.u.
     unit-cell volume          =    7046.4111 (a.u.)^3
     number of atoms/cell      =           44
     number of atomic types    =            2
     number of electrons       =       408.00
     number of Kohn-Sham states=          304
     kinetic-energy cutoff     =      44.0992  Ry
     charge density cutoff     =     440.9919  Ry
     convergence threshold     =      7.3E-07
     mixing beta               =       0.1000
     number of iterations used =           10  plain     mixing
     Exchange-correlation      = RPBE ( 1  4 28  4 0)
     nstep                     =           50

     celldm(1)=   1.889726  celldm(2)=   0.000000  celldm(3)=   0.000000
     celldm(4)=   0.000000  celldm(5)=   0.000000  celldm(6)=   0.000000

     crystal axes: (cart. coord. in units of alat)
               a(1) = (   7.548011   0.000000   0.000000 )
               a(2) = (  -3.774005   6.536769   0.000000 )
               a(3) = (   0.000000   0.000000  21.162925 )

     reciprocal axes: (cart. coord. in units 2 pi/alat)
               b(1) = (  0.132485  0.076490  0.000000 )
               b(2) = (  0.000000  0.152981  0.000000 )
               b(3) = (  0.000000  0.000000  0.047252 )

     PseudoPot. # 1 for Ni read from file:
     /home/alatimer/bin/psp/esp_psp_w_gbrvRu/Ni.UPF
     MD5 check sum: 8b2449ee0060d9c33484ccd47bb60870
     Pseudo is Ultrasoft + core correction, Zval = 10.0
     Generated using "atomic" code by A. Dal Corso  v.5.0.2 svn rev. 9415
     Using radial grid of 1195 points,  6 beta functions with:
                l(1) =   0
                l(2) =   0
                l(3) =   1
                l(4) =   1
                l(5) =   2
                l(6) =   2
     Q(r) pseudized with 0 coefficients

     PseudoPot. # 2 for  O read from file:
     /home/alatimer/bin/psp/esp_psp_w_gbrvRu/O.UPF
     MD5 check sum: e057bbcf3229fb5d8c36c0c92f9568b4
     Pseudo is Ultrasoft + core correction, Zval =  6.0
     Generated using "atomic" code by A. Dal Corso  v.5.0.2 svn rev. 9415
     Using radial grid of 1095 points,  4 beta functions with:
                l(1) =   0
                l(2) =   0
                l(3) =   1
                l(4) =   1
     Q(r) pseudized with 0 coefficients

     atomic species   valence    mass     pseudopotential
        Ni1           10.00    58.69340     Ni( 1.00)
        O1             6.00    15.99940      O( 1.00)

     Starting magnetic structure
     atomic species   magnetization
        Ni1          0.300
        O1           0.500

     No symmetry found

   Cartesian axes

     site n.     atom                  positions (alat units)
         1           Ni1 tau(   1) = (   0.0000000   0.0000000   7.5000000  )
         2           Ni1 tau(   2) = (   1.2580018   0.7263077   9.5543084  )
         3           Ni1 tau(   3) = (   0.0000000   1.4526154  11.6086168  )
         4           Ni1 tau(   4) = (   1.2580018   2.1789231  13.6629252  )
         5           Ni1 tau(   5) = (  -1.2580018   2.1789231   7.5000000  )
         6           Ni1 tau(   6) = (   0.0000000   2.9052308   9.5543084  )
         7           Ni1 tau(   7) = (  -1.2580018   3.6315385  11.6086168  )
         8           Ni1 tau(   8) = (  -0.0000000   4.3578462  13.6629252  )
         9           Ni1 tau(   9) = (  -2.5160037   4.3578462   7.5000000  )
        10           Ni1 tau(  10) = (  -1.2580018   5.0841539   9.5543084  )
        11           Ni1 tau(  11) = (  -2.5160037   5.8104616  11.6086168  )
        12           Ni1 tau(  12) = (  -1.2580018   6.5367693  13.6629252  )
        13           Ni1 tau(  13) = (   2.5160037   0.0000000   7.5000000  )
        14           Ni1 tau(  14) = (   3.7740055   0.7263077   9.5543084  )
        15           Ni1 tau(  15) = (   2.5160037   1.4526154  11.6086168  )
        16           Ni1 tau(  16) = (   3.7740055   2.1789231  13.6629252  )
        17           Ni1 tau(  17) = (   1.2580018   2.1789231   7.5000000  )
        18           Ni1 tau(  18) = (   2.5160037   2.9052308   9.5543084  )
        19           Ni1 tau(  19) = (   1.2580018   3.6315385  11.6086168  )
        20           Ni1 tau(  20) = (   2.5160037   4.3578462  13.6629252  )
        21           Ni1 tau(  21) = (  -0.0000000   4.3578462   7.5000000  )
        22           Ni1 tau(  22) = (   1.2580018   5.0841539   9.5543084  )
        23           Ni1 tau(  23) = (  -0.0000000   5.8104616  11.6086168  )
        24           Ni1 tau(  24) = (   1.2580018   6.5367693  13.6629252  )
        25           Ni1 tau(  25) = (   5.0320073   0.0000000   7.5000000  )
        26           Ni1 tau(  26) = (   6.2900092   0.7263077   9.5543084  )
        27           Ni1 tau(  27) = (   5.0320073   1.4526154  11.6086168  )
        28           Ni1 tau(  28) = (   6.2900092   2.1789231  13.6629252  )
        29           Ni1 tau(  29) = (   3.7740055   2.1789231   7.5000000  )
        30           Ni1 tau(  30) = (   5.0320073   2.9052308   9.5543084  )
        31           Ni1 tau(  31) = (   3.7740055   3.6315385  11.6086168  )
        32           Ni1 tau(  32) = (   5.0320073   4.3578462  13.6629252  )
        33           Ni1 tau(  33) = (   2.5160037   4.3578462   7.5000000  )
        34           Ni1 tau(  34) = (   3.7740055   5.0841539   9.5543084  )
        35           Ni1 tau(  35) = (   2.5160037   5.8104616  11.6086168  )
        36           Ni1 tau(  36) = (   3.7740055   6.5367693  13.6629252  )
        37           O1  tau(  37) = (   3.7935804   5.1277866  14.8463543  )
        38           O1  tau(  38) = (   1.3203265   5.0554212  14.8463543  )
        39           O1  tau(  39) = (   3.8363302   0.6975750  14.8463543  )
        40           O1  tau(  40) = (   6.3523338   0.6975750  14.8463543  )
        41           O1  tau(  41) = (   1.3203265   0.6975750  14.8463543  )
        42           O1  tau(  42) = (  -1.1956772   5.0554212  14.8463543  )
        43           O1  tau(  43) = (   5.0943320   2.8764981  14.8463543  )
        44           O1  tau(  44) = (   0.0623247   2.8764981  14.8463543  )

     number of k points=    10  Fermi-Dirac smearing, width (Ry)=  0.0073
                       cart. coord. in units 2pi/alat
        k(    1) = (   0.0000000   0.0000000   0.0000000), wk =   0.1111111
        k(    2) = (   0.0000000   0.0509936   0.0000000), wk =   0.2222222
        k(    3) = (   0.0441617   0.0254968   0.0000000), wk =   0.2222222
        k(    4) = (   0.0441617   0.0764904   0.0000000), wk =   0.2222222
        k(    5) = (   0.0441617  -0.0254968   0.0000000), wk =   0.2222222
        k(    6) = (   0.0000000   0.0000000   0.0000000), wk =   0.1111111
        k(    7) = (   0.0000000   0.0509936   0.0000000), wk =   0.2222222
        k(    8) = (   0.0441617   0.0254968   0.0000000), wk =   0.2222222
        k(    9) = (   0.0441617   0.0764904   0.0000000), wk =   0.2222222
        k(   10) = (   0.0441617  -0.0254968   0.0000000), wk =   0.2222222

     Largest allocated arrays     est. size (Mb)     dimensions
     Largest temporary arrays     est. size (Mb)     dimensions

     Check: negative/imaginary core charge=   -0.000010    0.000000

     Initial potential from superposition of free atoms
     Check: negative starting charge=(component1):   -0.000478
     Check: negative starting charge=(component2):   -0.000221

     starting charge  407.99095, renormalised to  408.00000

     negative rho (up, down):  4.778E-04 2.213E-04

     Adding external electric field

     Computed dipole along edir(3) :
        Dipole               -0.0085 Ry au,         -0.0216 Debye
        Dipole field         -0.0000 Ry au

        Potential amp.        0.0012 Ry
        Total length         38.9923 bohr

[...]

     Starting wfc are  356 randomized atomic wfcs

     Self-consistent Calculation

     iteration #  1     ecut=    44.10 Ry     beta=0.10
     Davidson diagonalization with overlap
     ethr =  1.00E-02,  avg # of iterations =  6.8

[...]

     Magnetic moment per site:
     atom:    1    charge:    3.9472    magn:    1.1278    constr:    0.0000
     atom:    2    charge:    3.9675    magn:    1.1114    constr:    0.0000
     atom:    3    charge:    3.9716    magn:    1.1078    constr:    0.0000
     atom:    4    charge:    3.9390    magn:    1.1457    constr:    0.0000
     atom:    5    charge:    3.9471    magn:    1.1279    constr:    0.0000
     atom:    6    charge:    3.9676    magn:    1.1114    constr:    0.0000
     atom:    7    charge:    3.9727    magn:    1.1064    constr:    0.0000
     atom:    8    charge:    3.9377    magn:    1.1522    constr:    0.0000
     atom:    9    charge:    3.9470    magn:    1.1279    constr:    0.0000
     atom:   10    charge:    3.9677    magn:    1.1113    constr:    0.0000
     atom:   11    charge:    3.9729    magn:    1.1062    constr:    0.0000
     atom:   12    charge:    3.9373    magn:    1.1524    constr:    0.0000
     atom:   13    charge:    3.9470    magn:    1.1279    constr:    0.0000
     atom:   14    charge:    3.9676    magn:    1.1114    constr:    0.0000
     atom:   15    charge:    3.9733    magn:    1.1055    constr:    0.0000
     atom:   16    charge:    3.9409    magn:    1.1432    constr:    0.0000
     atom:   17    charge:    3.9469    magn:    1.1280    constr:    0.0000
     atom:   18    charge:    3.9681    magn:    1.1109    constr:    0.0000
     atom:   19    charge:    3.9732    magn:    1.1055    constr:    0.0000
     atom:   20    charge:    3.9393    magn:    1.1453    constr:    0.0000
     atom:   21    charge:    3.9470    magn:    1.1279    constr:    0.0000
     atom:   22    charge:    3.9676    magn:    1.1113    constr:    0.0000
     atom:   23    charge:    3.9728    magn:    1.1063    constr:    0.0000
     atom:   24    charge:    3.9358    magn:    1.1527    constr:    0.0000
     atom:   25    charge:    3.9471    magn:    1.1279    constr:    0.0000
     atom:   26    charge:    3.9675    magn:    1.1119    constr:    0.0000
     atom:   27    charge:    3.9712    magn:    1.1083    constr:    0.0000
     atom:   28    charge:    3.9359    magn:    1.1526    constr:    0.0000
[...]
     Harris-Foulkes estimate   =   -3892.00574461 Ry
     estimated scf accuracy    <       0.00000066 Ry

     The total energy is the sum of the following terms:

     one-electron contribution =  -26857.46856439 Ry
     hartree contribution      =   13849.35854224 Ry
     xc contribution           =   -1575.91839023 Ry
     ewald contribution        =   10692.17895893 Ry
     electric field correction =       0.00221067 Ry
     smearing contrib. (-TS)   =      -0.15850011 Ry

[...]

     convergence has been achieved in  73 iterations

     Forces acting on atoms (Ry/au):

     negative rho (up, down):  3.779E-04 3.364E-04
     atom    1 type  1   force =    -0.00065056    0.00034843    0.00430613
     atom    2 type  1   force =     0.00087414   -0.00016708   -0.00543905
     atom    3 type  1   force =    -0.00291180   -0.00166131   -0.01411775
     atom    4 type  1   force =     0.02317015   -0.00757259    0.04182879
     atom    5 type  1   force =     0.00006069   -0.00078911    0.00432369
     atom    6 type  1   force =     0.00039375    0.00083850   -0.00513776
     atom    7 type  1   force =    -0.00021473   -0.00156157   -0.00768740
     atom    8 type  1   force =     0.02899932   -0.01507525    0.05792968
     atom    9 type  1   force =     0.00026926   -0.00008239    0.00499847
     atom   10 type  1   force =     0.00026741   -0.00008958   -0.00543654
     atom   11 type  1   force =    -0.00132180    0.00075195   -0.00766591
     atom   12 type  1   force =     0.02347516   -0.00038258    0.05731439
     atom   13 type  1   force =     0.00020568   -0.00028194    0.00501830
     atom   14 type  1   force =    -0.00064462   -0.00028725   -0.00542698
     atom   15 type  1   force =    -0.00003827    0.00258503   -0.00176875
     atom   16 type  1   force =     0.00373865    0.00122057    0.05128353
     atom   17 type  1   force =     0.00011899    0.00005349    0.00464781
     atom   18 type  1   force =     0.00016219   -0.00015296   -0.00470131
     atom   19 type  1   force =     0.00191374   -0.00132815   -0.00265808
     atom   20 type  1   force =     0.01736049   -0.01239274    0.04169307
     atom   21 type  1   force =    -0.00007817    0.00006519    0.00497895
     atom   22 type  1   force =    -0.00031120   -0.00078946   -0.00507978
     atom   23 type  1   force =     0.00128683    0.00074877   -0.00787920
     atom   24 type  1   force =     0.02617354   -0.00406871    0.04620252
     atom   25 type  1   force =     0.00071588    0.00031716    0.00431362
     atom   26 type  1   force =    -0.00010453    0.00003545   -0.00110015
     atom   27 type  1   force =     0.00277363   -0.00166789   -0.01364627
     atom   28 type  1   force =     0.01796332   -0.01728866    0.04606827
     atom   29 type  1   force =     0.00004740   -0.00000034    0.00467163
     atom   30 type  1   force =    -0.00005021    0.00061850   -0.00561366
     atom   31 type  1   force =    -0.00233333   -0.00128094   -0.00132726
     atom   32 type  1   force =    -0.00014475   -0.00914666    0.06855698
     atom   33 type  1   force =     0.00010156   -0.00020199    0.00465456
     atom   34 type  1   force =     0.00065376   -0.00071027   -0.00548091
     atom   35 type  1   force =    -0.00002263    0.00353202   -0.01402645
     atom   36 type  1   force =     0.01277905    0.00731975    0.03759853
     atom   37 type  2   force =    -0.01927724   -0.05602454   -0.04734499
     atom   38 type  2   force =    -0.00174762   -0.02529563   -0.04730640
     atom   39 type  2   force =    -0.04090601    0.04362984   -0.04659740
     atom   40 type  2   force =    -0.02359134    0.01392399   -0.04756405
     atom   41 type  2   force =    -0.00243163    0.04800082   -0.04617271
     atom   42 type  2   force =    -0.02426237    0.01045740   -0.04726589
     atom   43 type  2   force =    -0.06246819    0.01437912   -0.04640026
     atom   44 type  2   force =     0.02000644    0.00947358   -0.04754401

     Total force =     0.249960     Total SCF correction =     0.002657
 !ASE

     Writing output data file calc.save
     Check: negative starting charge=(component1):   -0.000696
     NEW-OLD atomic charge density approx. for the potential

     Check: negative/imaginary core charge=   -0.000009    0.000000
     Check: negative starting charge=(component1):   -0.000668

[...]

     iteration # 19     ecut=    44.10 Ry     beta=0.10
     Davidson diagonalization with overlap
     c_bands:  1 eigenvalues not converged
     ethr =  1.18E-08,  avg # of iterations =  3.8

[...]

     Total force =     0.028051     Total SCF correction =     0.003318
     SCF correction compared to forces is large: reduce conv_thr to get better values
 !ASE

[...]

     Total force =     0.020652     Total SCF correction =     0.001572
 !ASE

[...]

     Writing output data file calc.save
     Check: negative starting charge=(component1):   -0.000675
     NEW-OLD atomic charge density approx. for the potential

     Check: negative/imaginary core charge=   -0.000009    0.000000
     Check: negative starting charge=(component1):   -0.000675

[...]

     Self-consistent Calculation

[...]

     total energy              =   -3892.08453210 Ry
     Harris-Foulkes estimate   =   -3892.08453184 Ry
     estimated scf accuracy    <       0.00000089 Ry

[...]

     iteration # 11     ecut=    44.10 Ry     beta=0.10
     Davidson diagonalization with overlap
     ethr =  2.18E-10,  avg # of iterations =  1.0

     negative rho (up, down):  3.672E-04 3.294E-04

[...]

     Adding external electric field

     Computed dipole along edir(3) :
        Dipole               -0.9531 Ry au,         -2.4226 Debye
        Dipole field         -0.0017 Ry au

        Potential amp.        0.1326 Ry
        Total length         38.9923 bohr

     Magnetic moment per site:
     atom:    1    charge:    3.9714    magn:    0.3831    constr:    0.0000
     atom:    2    charge:    3.9689    magn:    0.3687    constr:    0.0000
     atom:    3    charge:    3.9672    magn:    0.3597    constr:    0.0000
     atom:    4    charge:    3.9094    magn:    0.0382    constr:    0.0000
     atom:    5    charge:    3.9715    magn:    0.3831    constr:    0.0000
     atom:    6    charge:    3.9689    magn:    0.3687    constr:    0.0000
     atom:    7    charge:    3.9670    magn:    0.3317    constr:    0.0000
     atom:    8    charge:    3.8764    magn:    0.0489    constr:    0.0000
     atom:    9    charge:    3.9714    magn:    0.3844    constr:    0.0000
     atom:   10    charge:    3.9687    magn:    0.3706    constr:    0.0000
     atom:   11    charge:    3.9685    magn:    0.3314    constr:    0.0000
     atom:   12    charge:    3.8875    magn:    0.0492    constr:    0.0000
     atom:   13    charge:    3.9714    magn:    0.3845    constr:    0.0000
     atom:   14    charge:    3.9689    magn:    0.3686    constr:    0.0000
     atom:   15    charge:    3.9655    magn:    0.3216    constr:    0.0000
     atom:   16    charge:    3.9499    magn:    0.0396    constr:    0.0000
     atom:   17    charge:    3.9715    magn:    0.3835    constr:    0.0000
     atom:   18    charge:    3.9686    magn:    0.3699    constr:    0.0000
     atom:   19    charge:    3.9653    magn:    0.3218    constr:    0.0000
     atom:   20    charge:    3.9159    magn:    0.0385    constr:    0.0000
     atom:   21    charge:    3.9714    magn:    0.3846    constr:    0.0000
     atom:   22    charge:    3.9689    magn:    0.3686    constr:    0.0000
     atom:   23    charge:    3.9668    magn:    0.3316    constr:    0.0000
     atom:   24    charge:    3.8290    magn:    0.0641    constr:    0.0000
     atom:   25    charge:    3.9715    magn:    0.3831    constr:    0.0000
     atom:   26    charge:    3.9683    magn:    0.3866    constr:    0.0000
     atom:   27    charge:    3.9624    magn:    0.3596    constr:    0.0000
     atom:   28    charge:    3.8272    magn:    0.0643    constr:    0.0000
     atom:   29    charge:    3.9715    magn:    0.3835    constr:    0.0000
     atom:   30    charge:    3.9689    magn:    0.3686    constr:    0.0000
     atom:   31    charge:    3.9655    magn:    0.3217    constr:    0.0000
     atom:   32    charge:    3.8888    magn:    0.0491    constr:    0.0000
     atom:   33    charge:    3.9715    magn:    0.3835    constr:    0.0000
     atom:   34    charge:    3.9689    magn:    0.3687    constr:    0.0000
     atom:   35    charge:    3.9661    magn:    0.3596    constr:    0.0000
     atom:   36    charge:    3.8326    magn:    0.0645    constr:    0.0000
     atom:   37    charge:    1.9133    magn:    0.0068    constr:    0.0000
     atom:   38    charge:    2.0160    magn:    0.0069    constr:    0.0000
     atom:   39    charge:    1.9182    magn:    0.0068    constr:    0.0000
     atom:   40    charge:    2.0294    magn:    0.0109    constr:    0.0000
     atom:   41    charge:    1.9609    magn:    0.0070    constr:    0.0000
     atom:   42    charge:    2.0236    magn:    0.0182    constr:    0.0000
     atom:   43    charge:    1.9150    magn:    0.0068    constr:    0.0000
     atom:   44    charge:    2.0182    magn:    0.0070    constr:    0.0000

     End of self-consistent calculation

 ------ SPIN UP ------------

[...]

 ------ SPIN DOWN ----------

[...]

          k = 0.0442-0.0255 0.0000 ( 34862 PWs)   bands (ev):

   -18.0049 -17.6043 -17.3472 -17.2615 -16.8558 -16.8240 -16.7373 -16.5532
    -5.8054  -5.1922  -4.9112  -4.8686  -4.8167  -4.7505  -4.5601  -4.4937
    -4.3339  -3.9899  -3.9539  -3.8034  -3.7001  -3.6728  -3.5692  -3.2253
    -3.2103  -3.1469  -3.1374  -3.0478  -2.9581  -2.8435  -2.7836  -2.7791
    -2.7164  -2.6459  -2.6247  -2.4976  -2.3641  -2.2688  -2.1386  -2.0658
    -2.0114  -2.0107  -1.9316  -1.9307  -1.6942  -1.6006  -1.5717  -1.5079
    -1.4113  -1.3784  -1.3622  -1.1968  -1.1639  -1.1565  -1.1086  -1.1000
    -1.0894  -1.0778  -1.0061  -0.9386  -0.9096  -0.8606  -0.8551  -0.8385
    -0.8380  -0.7344  -0.6980  -0.6512  -0.6388  -0.5857  -0.5840  -0.5473
    -0.5363  -0.4936  -0.4667  -0.4664  -0.4221  -0.4132  -0.3625  -0.3333
    -0.3105  -0.2766  -0.2760  -0.2498  -0.2219  -0.1726  -0.1589  -0.1338
    -0.0657  -0.0561  -0.0254  -0.0230   0.0335   0.0526   0.0629   0.1058
     0.1248   0.1281   0.1589   0.1779   0.2172   0.2247   0.2636   0.3064
     0.3130   0.3345   0.3867   0.4016   0.4806   0.5035   0.5142   0.5446
     0.5501   0.5546   0.6006   0.6099   0.6107   0.6324   0.6420   0.6741
     0.7223   0.7237   0.7565   0.7756   0.7906   0.7989   0.8492   0.8530
     0.8626   0.8671   0.8738   0.8862   0.8932   0.9396   0.9496   0.9611
     0.9762   0.9908   1.0077   1.0184   1.0354   1.0826   1.1097   1.1485
     1.1616   1.1707   1.1942   1.2456   1.2468   1.2743   1.2831   1.2884
     1.2928   1.3075   1.3493   1.4262   1.4266   1.4830   1.4934   1.5077
     1.5214   1.5315   1.5389   1.5697   1.5842   1.6108   1.6246   1.6406
     1.6582   1.6935   1.7121   1.7251   1.7669   1.7743   1.8133   1.8427
     1.8479   1.8923   1.9284   1.9517   1.9794   2.0133   2.0177   2.0770
     2.0855   2.1088   2.1112   2.1346   2.1484   2.1778   2.1903   2.2392
     2.2510   2.2666   2.2913   2.3079   2.3107   2.3541   2.3610   2.3785
     2.4085   2.4156   2.4312   2.4535   2.4537   2.4853   2.4978   2.5141
     2.5153   2.5272   2.5345   2.6354   2.6492   2.6631   2.6725   2.7285
     2.8171   2.8328   2.8477   2.9187   2.9323   3.0395   3.0530   3.0776
     3.2941   3.5170   3.6047   3.6535   3.6774   3.9809   4.2013   4.7540
     4.7909   5.0106   5.2838   5.4105   5.5412   5.6520   5.6767   6.1573
     6.3623   6.8906   7.0941   7.2495   7.3135   7.7845   8.1389   8.1431
     8.2162   8.3067   8.3796   8.4935   8.8057   8.9945   9.1932   9.2405
     9.4433   9.4675   9.5030   9.5205   9.5847   9.6731   9.7780  10.0608
    10.3011  10.4056  10.4653  10.5315  10.5358  10.5515  10.7591  10.7876
    10.8512  11.0588  11.1610  11.1621  11.4523  11.6369  11.6988  11.7394
    11.8215  11.9611  12.0348  12.0959  12.5295  12.5414  12.5803  12.5878
    12.6540  12.6740  12.7767  12.8949  12.9231  13.0576  13.1380  13.2358
    13.2810  13.4617  13.7131  13.7351  13.7639  13.7816  13.8710  13.8916

     the Fermi energy is     2.2903 ev

!    total energy              =   -3892.08453203 Ry
     Harris-Foulkes estimate   =   -3892.08453355 Ry
     estimated scf accuracy    <       0.00000054 Ry

     The total energy is the sum of the following terms:

     one-electron contribution =  -26759.84013103 Ry
     hartree contribution      =   13801.14491156 Ry
     xc contribution           =   -1576.32692485 Ry
     ewald contribution        =   10643.08993260 Ry
     electric field correction =       0.00162016 Ry
     smearing contrib. (-TS)   =      -0.15394047 Ry

     total magnetization       =    16.85 Bohr mag/cell
     absolute magnetization    =    19.58 Bohr mag/cell

     convergence has been achieved in  11 iterations

     Forces acting on atoms (Ry/au):

     negative rho (up, down):  3.672E-04 3.294E-04
     atom    1 type  1   force =    -0.00056084    0.00033666    0.00372167
     atom    2 type  1   force =     0.00112426   -0.00122244   -0.00521133
     atom    3 type  1   force =     0.00035851   -0.00004287   -0.00020431
     atom    4 type  1   force =     0.00047996    0.00010392    0.00006778
     atom    5 type  1   force =     0.00007297   -0.00077567    0.00369747
     atom    6 type  1   force =     0.00001621    0.00095903   -0.00518970
     atom    7 type  1   force =    -0.00018233    0.00011471    0.00001362
     atom    8 type  1   force =    -0.00012301   -0.00013540    0.00023479
     atom    9 type  1   force =     0.00007976    0.00018652    0.00490645
     atom   10 type  1   force =     0.00044334   -0.00010948   -0.00315716
     atom   11 type  1   force =    -0.00015832    0.00005701   -0.00006427
     atom   12 type  1   force =    -0.00069648    0.00098031    0.00047411
     atom   13 type  1   force =    -0.00008224   -0.00011587    0.00491768
     atom   14 type  1   force =    -0.00026794   -0.00127829   -0.00527809
     atom   15 type  1   force =    -0.00014234    0.00014526    0.00041639
     atom   16 type  1   force =    -0.00032286   -0.00017151    0.00055027
     atom   17 type  1   force =     0.00015626   -0.00000746    0.00428699
     atom   18 type  1   force =     0.00043227   -0.00012742   -0.00563246
     atom   19 type  1   force =     0.00015730   -0.00009021    0.00014290
     atom   20 type  1   force =    -0.00019929    0.00000853    0.00039019
     atom   21 type  1   force =    -0.00005382    0.00007806    0.00491565
     atom   22 type  1   force =    -0.00073833   -0.00028312   -0.00518177
     atom   23 type  1   force =    -0.00008537    0.00012918   -0.00013051
     atom   24 type  1   force =     0.00018308    0.00028593    0.00081676
     atom   25 type  1   force =     0.00065381    0.00030544    0.00370695
     atom   26 type  1   force =     0.00058589   -0.00027541   -0.00365929
     atom   27 type  1   force =    -0.00042098    0.00013954    0.00006091
     atom   28 type  1   force =    -0.00029406   -0.00044440    0.00084355
     atom   29 type  1   force =    -0.00018849    0.00005017    0.00426159
     atom   30 type  1   force =     0.00103648    0.00099646   -0.00526960
     atom   31 type  1   force =    -0.00020635    0.00009591    0.00019027
     atom   32 type  1   force =    -0.00092522    0.00013243    0.00046977
     atom   33 type  1   force =     0.00003468   -0.00010712    0.00429437
     atom   34 type  1   force =     0.00166435   -0.00019450   -0.00518850
     atom   35 type  1   force =     0.00005013   -0.00028494   -0.00018393
     atom   36 type  1   force =    -0.00055628    0.00033668    0.00088873
     atom   37 type  2   force =     0.00023101    0.00011429   -0.00022166
     atom   38 type  2   force =    -0.00054179    0.00010261    0.00002599
     atom   39 type  2   force =    -0.00032095    0.00002737   -0.00033334
     atom   40 type  2   force =    -0.00018349    0.00021582    0.00038007
     atom   41 type  2   force =     0.00020455   -0.00055845   -0.00014313
     atom   42 type  2   force =    -0.00007493   -0.00011517    0.00034608
     atom   43 type  2   force =    -0.00014811    0.00032439   -0.00026209
     atom   44 type  2   force =    -0.00049100    0.00011352    0.00029012

     Total force =     0.020254     Total SCF correction =     0.002591
     SCF correction compared to forces is large: reduce conv_thr to get better values
 !ASE

     Writing output data file calc.save

     General routines

     Parallel routines

   This run was terminated on:   2:51:36  19Mar2017

   JOB DONE.